Sn   Cl   C    H    N    Li
   1.00000000000000     
  11.1156835556000004   0.0000000000000000   0.0000000000000000
  -0.0572679011000000  11.4386679467000008   0.0000000000000000
   0.0811114213000000   0.6570856489000000  11.5018020556000007
Sn   Cl   C    H    N    Li
8  24  8  48  8  1  
Direct
  0.5093821317635820  0.1605309962763140  0.8657111483447650  
  0.5013577915625220  0.1803890946821720  0.3534709323538470  
  0.5022996857371620  0.6522323443789150  0.8632828685459720  
  0.5033871813275650  0.6768152756277690  0.3622040067796190  
  0.0077404928337044  0.1523355158135960  0.8711806500974820  
  0.0148587037749293  0.1685907020498890  0.3624975063016740  
  0.0090044628902728  0.6494473501068930  0.8653197902630551  
  0.0049816837890917  0.6680587027476770  0.3646984109900050  
  0.2611234963408540  0.1440128331478990  0.8477542721789511  
  0.2586871155934960  0.1205667051008540  0.3901742287855010  
  0.2588927050279870  0.6178300854810720  0.8598109819977870  
  0.2638466066568750  0.7179736865356640  0.3494449502084690  
  0.7586589386643540  0.1323937188174860  0.8981119486920940  
  0.7595399953317410  0.2271930584533580  0.3325400191851670  
  0.7596489338575600  0.6670442623018810  0.8789850234229630  
  0.7629834653124580  0.6238799182069710  0.3728785660054320  
  0.5531635510398040  0.9507789322074950  0.3548038925502740  
  0.5002666946481860  0.9284683816608920  0.8562524802047290  
  0.4555001396855160  0.4517467176083410  0.3850907663258130  
  0.5310430185751061  0.4304438872929240  0.8401102723983580  
  0.9687718813148219  0.9403616315743140  0.3507527960562420  
  0.0121173134371310  0.9263992391716670  0.8795083231249500  
  0.0587098271882639  0.4422328272652060  0.3855957766343980  
  0.9831666643838800  0.4291512427770330  0.8403629105221690  
  0.0269677523952855  0.1519832693342990  0.1119673136658340  
  0.9555318410006860  0.1360019502287760  0.6100411235389920  
  0.0026372825254089  0.6247733057348800  0.1078244345856150  
  0.0007601252238190  0.6683864687285980  0.6032971058378240  
  0.4861577213235730  0.1464340260800810  0.1024408912166380  
  0.5456838824734080  0.1524352886940240  0.5988780172114090  
  0.5090999733662850  0.6312099632775400  0.1086505208834110  
  0.4971371085240220  0.6744086818446110  0.6042757086042430  
  0.2592241163150370  0.8711740055583750  0.0710039810140410  
  0.2211281618952530  0.8739292741974360  0.6256341375010370  
  0.2604195956687010  0.3859061526268990  0.0975595442586179  
  0.2575409032818800  0.3683446863576410  0.6403085796893490  
  0.7546197287071810  0.8690086020062930  0.1011275620762610  
  0.7575331232416580  0.8705079128259340  0.5978748229150470  
  0.7553142871877500  0.3734068537604500  0.0660171406294149  
  0.7588301302911280  0.4040007626532990  0.6056423455539010  
  0.3409062137329630  0.8211728598823910  0.0898369926020586  
  0.2356748354250430  0.8151037184083870  0.7019502667687100  
  0.3421971112065270  0.3379950084545380  0.1218468896470650  
  0.3387964191960310  0.3522485631937920  0.6908550390361050  
  0.7660009748758090  0.8007165198234349  0.1703874965787750  
  0.8501084304570540  0.8587730393712391  0.5725693863931109  
  0.8359444195340990  0.3209838805423330  0.0831488870502879  
  0.8402973209510940  0.3626525547589760  0.6413886297958830  
  0.2611621630946120  0.9079428454624310  0.9815320305109340  
  0.2378554607703170  0.8308612113727790  0.5450838724575680  
  0.2613479882253590  0.4083459937337100  0.0039724176070024  
  0.2605229794668270  0.3205703375600930  0.5606700845235340  
  0.8272816587400210  0.8637325451727130  0.0374587778303352  
  0.7151824077764440  0.9326630767817440  0.5385207521327470  
  0.7568902380215951  0.4098906061911450  0.9764136091497750  
  0.7627121427425120  0.4106680230621250  0.5104760742041690  
  0.1784026080296420  0.8177061413944769  0.0866845176662306  
  0.1294904264799980  0.9078807728144990  0.6239261049515120  
  0.1807729383011460  0.3328951266625070  0.1208992782076380  
  0.1756248414413540  0.3460428276065930  0.6894644305662690  
  0.6686248716763330  0.8568038226699670  0.0581847867419245  
  0.6975735084484920  0.7955853214528270  0.6017220840541520  
  0.6743435312907640  0.3199429568814330  0.0817283673915213  
  0.6781630706081960  0.3559045282021310  0.6364422148237370  
  0.1786793342001450  0.0206899920686963  0.1351827494217120  
  0.2941260160059930  0.0288026663201190  0.5641388103093430  
  0.1794345832421860  0.5439943791397051  0.1383113232457750  
  0.1784274938034020  0.5136108632953500  0.5576248233983160  
  0.7475503014003730  0.0511123395244537  0.0865133827651799  
  0.6774295433321780  0.9492143062707300  0.7356616192697650  
  0.6782853431309920  0.5242423672789320  0.1326234950334460  
  0.6755163430861360  0.5673175077219390  0.6174112635052570  
  0.2536169629408400  0.9389554285388350  0.2352496226898750  
  0.2901369534479470  0.0191606836196568  0.7107293391551520  
  0.2542453328911150  0.4796122563182390  0.2490639588762920  
  0.2525911196457790  0.5434172182957870  0.6797985197890980  
  0.6886373697400910  0.9936503432666680  0.2111948214300280  
  0.7881705627788870  0.8662025881829220  0.7738242844869820  
  0.7530389911955800  0.4416753498097780  0.2315514806722940  
  0.7495505365499620  0.5236554471512950  0.7370126264654800  
  0.3302127401201880  0.0240448960060928  0.1368289208033660  
  0.3923667085797210  0.9462156343708980  0.6413501773805370  
  0.3322151494069070  0.5476866950920620  0.1406918465397280  
  0.3303448272102360  0.5189760105766990  0.5578104851657950  
  0.8377335255907750  0.9988343938590309  0.1934672193277850  
  0.8242962770219480  0.9957386091443901  0.7133249553523860  
  0.8299737578908490  0.5247370853683410  0.1333032032160780  
  0.8275059006304540  0.5733833804324880  0.6203279067162150  
  0.2551140237372780  0.9703917166118470  0.1495416374933220  
  0.3048572686873790  0.9731251995470050  0.6366637212593810  
  0.2563608025319130  0.4961532105105970  0.1601236234113180  
  0.2545983217064970  0.4951771027437850  0.6061514872312710  
  0.7572995031613570  0.9853514111491520  0.1512067762281440  
  0.7629985835007360  0.9285117328483470  0.7114838245816860  
  0.7538646454264720  0.4717625948599600  0.1454994560899010  
  0.7521548590880440  0.5239986773090830  0.6472360371924770  
  0.7589869587783570  0.1341663895667890  0.5132297971173320  F F F
