K-POINTS
 0
Gamma-Centered
 1 2 3
 0 0 0
