Sn   Cl   C    H    N    Li
   1.00000000000000     
  11.1156835556000004   0.0000000000000000   0.0000000000000000
  -0.0572679011000000  11.4386679467000008   0.0000000000000000
   0.0811114213000000   0.6570856489000000  11.5018020556000007
Sn   Cl   C    H    N    Li
8  24  8  48  8  1  
Direct
  0.4822441110400820  0.4776865280759980  0.9818681768486039  
  0.4896412381729870  0.4925115732310800  0.4823616210074200  
  0.4893773500839300  0.9739589114057590  0.9958587811027531  
  0.4853574214153150  0.9699926251448570  0.4926921097347450  
  0.9866072328723700  0.4751450195959000  0.9840173775480709  
  0.9908032566986050  0.4753974424286380  0.4820298587659330  
  0.9911491245609880  0.9703025787653260  0.9967411829838430  
  0.9992476081747950  0.9564626457422289  0.4925957625270750  
  0.2273307170875650  0.4971116802600530  0.9867886542838110  
  0.2257326331572580  0.4225698714204930  0.4890334556137120  
  0.2437372355849970  0.9481367045405510  0.0109836801770341  
  0.2416280277041560  0.9900004357297320  0.4963408882639680  
  0.7249417149378310  0.4397588981565220  0.9832786255703950  
  0.7268359881382310  0.5380497407308700  0.4675224999952900  
  0.7436251946135330  0.9714046821890630  0.0077442390578109  
  0.7405215515946461  0.9282652116431700  0.5066855385596750  
  0.5810859589893090  0.2378441417789580  0.5001168318340130  
  0.4470423885866820  0.2515115681381460  0.9837067685163540  
  0.4536666149903180  0.7347949151760040  0.4858707257578990  
  0.4996003843511490  0.7502703948025540  0.9743006319424180  
  0.9436068497988900  0.2186861866355180  0.4829372048429790  
  0.0196903446234711  0.2494489516352990  0.9947904709946430  
  0.0297478217868945  0.7167789122120261  0.4822389911960320  
  0.9817812595590080  0.7466421940631039  0.9748316804373161  
  0.9856896666979230  0.4618604125836280  0.2263224488716450  
  0.9863566199327770  0.4555992799689200  0.7245553101333640  
  0.9837879550852090  0.9403166226369460  0.2352946259030440  
  0.9910165454764370  0.9588672108322230  0.7305590933887250  
  0.4820793208650730  0.4579918919592250  0.2174841754289010  
  0.4867314041298970  0.4670062598391880  0.7171123170265949  
  0.4963856060785970  0.9457230387431370  0.2330878956443280  
  0.4889280442436790  0.9620566524551210  0.7280149188844500  
  0.2356121177380200  0.1771785764056960  0.2242262409247540  
  0.2349447180521010  0.1897236324261960  0.7271313501934570  
  0.2394876620953690  0.6897837364377301  0.2168291277075100  
  0.2368671856824130  0.6898875384822960  0.7281523210849430  
  0.7422491006097280  0.2007012330616150  0.2084540499336250  
  0.7558722097626890  0.1897594762834510  0.7848938982544190  
  0.7372294626894310  0.6864125480053800  0.1858630612504280  
  0.7412496242649760  0.6945570072013260  0.7362614051297440  
  0.3145612783340490  0.1401695130614290  0.2684187013789500  
  0.3138128536588850  0.1405002098630120  0.7569226838391681  
  0.3200726296335970  0.6398781322714490  0.2410507279643460  
  0.3179222799364490  0.6432633888250560  0.7560876843350620  
  0.8154239959199751  0.1507120157734370  0.2500582010941930  
  0.8001273557711570  0.1938442282392680  0.8687230906632790  
  0.8165318516297210  0.6311938117053860  0.1989997451717640  
  0.8205859833114600  0.6485016301882170  0.7705417544577799  
  0.2414148699085360  0.1632195030771190  0.1313385266623020  
  0.2329236420471390  0.1998247972137010  0.6325041754769070  
  0.2395302947765970  0.7108990506362560  0.1231580612679140  
  0.2355950194336310  0.7009470263420320  0.6334784756162580  
  0.7624134907381120  0.2133150523874530  0.1156309310712380  
  0.8173406375694880  0.1469589335669790  0.7261165627372590  
  0.7405914562781341  0.7318855702463760  0.0999753456658092  
  0.7460365616243390  0.7032430642963590  0.6413425673199380  
  0.1530646928137350  0.1377186198684960  0.2611195578252890  
  0.1525748178089400  0.1458042476059130  0.7584722219223901  
  0.1582802502164270  0.6400464639898430  0.2422785331209030  
  0.1553838261478960  0.6442622173595070  0.7593033155955070  
  0.6567614606441921  0.1538813519358650  0.2208794815426440  
  0.6694515469287941  0.1444040737826090  0.7910405453550280  
  0.6549131307849140  0.6339549423804730  0.1957335251312440  
  0.6587340777037169  0.6481061766605660  0.7639037532050420  
  0.1591850992839280  0.3439610027303450  0.1995774052154250  
  0.1663478387260050  0.3561683551579010  0.7495884168129410  
  0.1643730268660600  0.8506591998781180  0.2565684734584500  
  0.1635983023204030  0.8553283238090990  0.7518099601549570  
  0.6681383780871090  0.3679867312763850  0.2180592876234670  
  0.6880604171854749  0.3125676192220630  0.6665151421033750  
  0.6625468695644250  0.8302157502605700  0.2660129941048610  
  0.6641304947255871  0.8601976860094600  0.7528076106719220  
  0.2273428014975770  0.3242297598072360  0.3269408887843950  
  0.2427916235873890  0.3027203740021220  0.8654264382085179  
  0.2395164967592070  0.7855055139719270  0.3667615079302330  
  0.2402738357347500  0.8029181003840991  0.8663233435570440  
  0.7083453842617810  0.3100547191467020  0.3459204751719500  
  0.6937515597106960  0.3571806024408800  0.8025028097688820  
  0.7340191546103400  0.7352694355409030  0.3578270014280950  
  0.7346244792677230  0.8108703715831830  0.8720198309818150  
  0.3100853894728520  0.3466172530777100  0.2069622756335480  
  0.3180593493586440  0.3516910851339830  0.7488724870592840  
  0.3163317011573780  0.8509497517306320  0.2561984374488620  
  0.3156860978320290  0.8546004661237810  0.7491858175895300  
  0.8154181696412730  0.3622106917767670  0.2529080589171590  
  0.8206009211082590  0.3554784805360240  0.7257004814534800  
  0.8135738561613510  0.8279836356666950  0.2683019102692840  
  0.8158655522693270  0.8608299192779630  0.7579738438912990  
  0.2329436330834860  0.3052295861579620  0.2397318192828760  
  0.2407364520950050  0.3071617886299480  0.7757949397177470  
  0.2401126202451880  0.8011133602878960  0.2777810807509370  
  0.2394661324509480  0.8076779500361810  0.7765026467853470  
  0.7339110981622280  0.3170390286954430  0.2592120818490380  
  0.7392838097202460  0.3121844637760730  0.7406870673021470  
  0.7368141545629120  0.7755966806320620  0.2752474341752770  
  0.7387812354074360  0.8133007983417000  0.7823711516583530  
  0.7589869587783570  0.1341663895667890  0.5132297971173320  F F F
