Sn   Cl   C    H    N    Li
   1.00000000000000     
  11.1156835556000004   0.0000000000000000   0.0000000000000000
  -0.0572679011000000  11.4386679467000008   0.0000000000000000
   0.0811114213000000   0.6570856489000000  11.5018020556000007
Sn   Cl   C    H    N    Li
8  24  8  48  8  1  
Direct
  0.4662008930870650  0.4416917767790300  0.9697784814855220  
  0.4764038753082520  0.4526004043179980  0.4645221073130270  
  0.4750821557829410  0.9331898676277181  0.9766645765590430  
  0.4733368058066240  0.9361252397220950  0.4726426616554390  
  0.9753299923098120  0.4374038169383340  0.9680762469970340  
  0.9785940186981520  0.4420139339919300  0.4660703301280440  
  0.9785564768232350  0.9299667399281620  0.9780140249733500  
  0.9818767947968670  0.9260123224864880  0.4725577608573800  
  0.2159726082893220  0.4478335688796150  0.9667269149081670  
  0.2181542117511710  0.3871061215066970  0.4804821010781500  
  0.2300662264777480  0.9047221061916660  0.9856850312881620  
  0.2314434052543990  0.9600205484396330  0.4699907436980990  
  0.7152778970280490  0.4079617978297480  0.9733195421211140  
  0.7186520807830360  0.4959222621736740  0.4496246288241240  
  0.7303426430015780  0.9362504155143760  0.9901570076803921  
  0.7295782656009711  0.8919596776008920  0.4866797989354080  
  0.5530970013890401  0.2068370545858110  0.4768150767395480  
  0.4391183523963910  0.2117635360556030  0.9689682211265670  
  0.4366543042176000  0.7043582644122180  0.4760967794128920  
  0.4905701092072350  0.7122259237980000  0.9538646173004141  
  0.9529747238898200  0.2022347201725960  0.4535983977842590  
  0.9977181911721470  0.2085427759264430  0.9805981154235019  
  0.0188698157564222  0.6901900728834089  0.4731416564776720  
  0.9648984031288580  0.7084031158731440  0.9543881064552320  
  0.9787187175053170  0.4247926246095310  0.2131793610782430  
  0.9626878157644070  0.4155846757344270  0.7074270308515050  
  0.9714509876570550  0.9008723263626900  0.2176258611562650  
  0.9767188907862679  0.9269149897645910  0.7119882990045090  
  0.4642841633546510  0.4204942542454370  0.2041051954259010  
  0.4837772056938710  0.4309885594272820  0.7021953685036399  
  0.4821078425850980  0.9066594442523110  0.2163032939090950  
  0.4742594991509900  0.9270229266380650  0.7087291286695330  
  0.2245914351504300  0.1375933459229730  0.1977204778337360  
  0.2130900725301560  0.1440527589523760  0.7171281363592620  
  0.2275582416224980  0.6538245398911841  0.2017002798809700  
  0.2239608192379580  0.6489107966100510  0.7221685825091440  
  0.7264929729418610  0.1591704361342810  0.1877594183245810  
  0.7412363068480090  0.1333502095566660  0.7717457273083330  
  0.7241778104114940  0.6483226402159530  0.1705266721947590  
  0.7287628372407170  0.6629783568597850  0.7168360356596010  
  0.3045600752474030  0.0961087320163720  0.2353162091777000  
  0.2759281369250320  0.0849798300934963  0.7615295323833490  
  0.3084172016185700  0.6045153619021530  0.2261991254938520  
  0.3058408921443110  0.6103615157005320  0.7576356509330000  
  0.7880668930314710  0.0997982543215850  0.2346321356510630  
  0.8025979327093370  0.1219085214733750  0.8438625343238860  
  0.8039011780127420  0.5939132341825780  0.1846407836501830  
  0.8090825435113480  0.6187635058854080  0.7512564594356270  
  0.2299802404190890  0.1387668392537930  0.1030580515471560  
  0.2206908538029060  0.1426225914685740  0.6233546604907030  
  0.2278419257135950  0.6753099712285340  0.1080455263306510  
  0.2233444115573940  0.6408620457700830  0.6282843739753010  
  0.7612061388568900  0.1699641776698840  0.0989285561030662  
  0.7940940339309780  0.1035311836124000  0.6991870827669640  
  0.7269857092045520  0.6918199956554250  0.0837307895498391  
  0.7331713699256880  0.6698864249728630  0.6218154746719931  
  0.1424768582898150  0.0929478725319200  0.2286049505179120  
  0.1207969162006070  0.1216309840301130  0.7412816662746250  
  0.1467303801965160  0.6032465128419000  0.2265669164556260  
  0.1415296605320190  0.6107957209646880  0.7595028523611890  
  0.6371838065004179  0.1199934020340540  0.1877170929960270  
  0.6555695002529600  0.0885211926435903  0.7766261850297370  
  0.6421638779337970  0.5957051215378170  0.1822987346929310  
  0.6464756444779620  0.6167530986797450  0.7455285188047150  
  0.1458686261514210  0.3033922346490400  0.1996715706500390  
  0.1775343917884100  0.3187828277491110  0.7152904286568700  
  0.1509705353528820  0.8140444731386290  0.2414305051083390  
  0.1506482412581300  0.8160447007010120  0.7122390301685820  
  0.6693975768753070  0.3312497201498680  0.1911768929488260  
  0.6645924828335140  0.2699796607540200  0.6976688213114360  
  0.6491586209774750  0.7937898676094119  0.2474164805100730  
  0.6500419400502520  0.8281082877171720  0.7315614242556490  
  0.2153301404764040  0.2640838839538790  0.3225621288247550  
  0.2322853008775830  0.2711123175355930  0.8439646104868460  
  0.2259138885358660  0.7490699977344660  0.3519525520631490  
  0.2267947335986130  0.7868403143111250  0.8343493172778130  
  0.6816804614683490  0.2707872817285440  0.3220181729485800  
  0.6972189635560260  0.2892411496342380  0.8381372127415200  
  0.7216175938626670  0.7013985952864950  0.3410226689668470  
  0.7215288365080930  0.7810385050988750  0.8509884084802470  
  0.2972048765748340  0.3062358117658630  0.2063438525949340  
  0.3252985248689460  0.2873921653920130  0.7352693634065190  
  0.3031405314287580  0.8151257628851130  0.2420314598786120  
  0.3027720943659910  0.8152133824608589  0.7104992260164570  
  0.8070967441595200  0.3108362873559040  0.2484361830089890  
  0.8064248882459371  0.3050961366634050  0.7405682815512969  
  0.8003244921642100  0.7922983122628960  0.2490660044177430  
  0.8018629544189140  0.8302050644581970  0.7360307957410580  
  0.2205436966741400  0.2604953288855450  0.2330766639733280  
  0.2389169923185040  0.2628415969744250  0.7554799243228330  
  0.2269561260177050  0.7649093897545280  0.2629887719499670  
  0.2264593882492210  0.7748152410515790  0.7458648964502620  
  0.7223161958767110  0.2740220564539600  0.2410192074086800  
  0.7282879789420620  0.2605184268165280  0.7596914320526440  
  0.7237638801572360  0.7396696637956800  0.2576893685055890  
  0.7252457458588120  0.7822581023865870  0.7612787230916480  
  0.7589869587783570  0.1341663895667890  0.5132297971173320  F F F
