Sn   Cl   C    H    N    Li
   1.00000000000000     
  11.1156835556000004   0.0000000000000000   0.0000000000000000
  -0.0572679011000000  11.4386679467000008   0.0000000000000000
   0.0811114213000000   0.6570856489000000  11.5018020556000007
Sn   Cl   C    H    N    Li
8  24  8  48  8  1  
Direct
  0.4966255068349910  0.2055320969146850  0.8946640908264401  
  0.4924730485430660  0.2228837131925090  0.3821290092400970  
  0.4943066978241360  0.6962266036390210  0.8933921019577310  
  0.4940862924714130  0.7141420245668680  0.3914871741240960  
  0.9986328094548470  0.1966009742100210  0.8970272040393610  
  0.0089187191299149  0.2112447901089790  0.3879766551836640  
  0.0003379734692275  0.6932505944386770  0.8952361096825791  
  0.9980387406842430  0.7056050100714411  0.3936260296657380  
  0.2480887970544760  0.1946177735881080  0.8814223262681220  
  0.2464548066240620  0.1611246976083070  0.4124983757616260  
  0.2504134068448760  0.6636007667392130  0.8935234406854030  
  0.2540458807822810  0.7502979350726779  0.3808919417129100  
  0.7466487007838860  0.1739378975668270  0.9171041066916250  
  0.7467309526596800  0.2768704028659230  0.3566559475808470  
  0.7511721309392591  0.7077327501943940  0.9082447218044180  
  0.7532772148553341  0.6647349980231760  0.4033808131211040  
  0.5517943689417690  0.9864538336489020  0.3865386568965180  
  0.4803693307244960  0.9722537770263640  0.8883592502242840  
  0.4498694292954340  0.4883345188881360  0.4090201820336350  
  0.5194009529550510  0.4746234814299670  0.8710042740475740  
  0.9609740196482780  0.9750127492234451  0.3790545899463000  
  0.0076867725409020  0.9705620979508420  0.9060998979602990  
  0.0469398492913056  0.4767313607202620  0.4086464687324130  
  0.9779198715700270  0.4726508486953000  0.8713270152058740  
  0.0125415361747390  0.1939673622887300  0.1385348597929740  
  0.9603112529697240  0.1805847544314590  0.6385955946990410  
  0.9938742539497420  0.6676737507573310  0.1369815508696850  
  0.9937338110836450  0.7061157730451491  0.6326124674513840  
  0.4799719749959640  0.1885127006936680  0.1285684843267940  
  0.5275601469783600  0.1965537524381710  0.6255849662085560  
  0.5010299573200750  0.6739191945491380  0.1371676954053390  
  0.4883355839927710  0.7096630005557700  0.6324271291380660  
  0.2491029853302620  0.9100003566386859  0.1042942890032780  
  0.2166802908410140  0.9127948874635480  0.6508823464451300  
  0.2507762224857610  0.4263271367870130  0.1251088021977800  
  0.2475405151549710  0.4112030080882570  0.6624620848638850  
  0.7470241821128550  0.9140358068580990  0.1251022128758710  
  0.7571840403037360  0.8994428787623781  0.6397646639984350  
  0.7463129337220140  0.4162289982460200  0.0928451012694727  
  0.7501669054278171  0.4419311276917240  0.6355055181330650  
  0.3304177725495570  0.8619028969512940  0.1286901705572150  
  0.2446306546592710  0.8499737617600920  0.7195759271866680  
  0.3323529860479220  0.3780615351937660  0.1493114898491850  
  0.3295841797375230  0.3889089699858410  0.7092150183785570  
  0.7717940821964930  0.8470103753185380  0.1917718013657080  
  0.8508695411243840  0.8813199131814050  0.6278941099091050  
  0.8268361036059479  0.3632962788155300  0.1087630837984270  
  0.8312473263519280  0.3997766415394320  0.6709685886252370  
  0.2523280913764380  0.9372880272028890  0.0121283799814166  
  0.2332788121066660  0.8816589622783240  0.5648025750729840  
  0.2515295884732080  0.4484170468646270  0.0314868427169007  
  0.2491728330032220  0.3742706119376150  0.5769201104546600  
  0.8114799657907820  0.9136543734510000  0.0533364995782241  
  0.7293145559937840  0.9447873331956460  0.5616786861656770  
  0.7482627058297880  0.4544572568961910  0.0039226010615566  
  0.7541784129553351  0.4492933738029130  0.5404334809972050  
  0.1677589301287040  0.8587974437630040  0.1246197914751030  
  0.1215081157194360  0.9343435037711481  0.6569736978590009  
  0.1707710484296190  0.3740289302637840  0.1488557353066830  
  0.1652341232276830  0.3841808661241590  0.7085227484142490  
  0.6576687876625430  0.8948802825278300  0.0926965392987494  
  0.6872767069776210  0.8335847022616220  0.6484161010980100  
  0.6649042984142650  0.3630164959826410  0.1070305201686010  
  0.6691421002463850  0.3941662638401630  0.6655710653924430  
  0.1686738310193830  0.0661000173487510  0.1517118923919280  
  0.2618810490936960  0.0790641587955457  0.6033270265362750  
  0.1710047775373130  0.5849426189526380  0.1656831391599120  
  0.1695922552064500  0.5651465348033829  0.5990398369435120  
  0.7247090462091440  0.0951183668942103  0.1119030735824680  
  0.6675825411226700  0.0111365319584421  0.7408658555396050  
  0.6696617086990500  0.5658031532550371  0.1624276422541050  
  0.6680720327677070  0.6057309846267490  0.6483336214621340  
  0.2419578238006340  0.9954352154698520  0.2595137491620630  
  0.2714872824071860  0.0562181043062955  0.7482922310625461  
  0.2458944952417600  0.5204395929193470  0.2763525608446150  
  0.2449823935527870  0.5789486881385441  0.7234416457527080  
  0.6851927254178560  0.0349009980931427  0.2404454296922010  
  0.7661874699981081  0.9413005894192410  0.8122134106609410  
  0.7438503693937910  0.4816623889673870  0.2598481658162070  
  0.7414102120700120  0.5609609508425740  0.7678683262507821  
  0.3204536410131070  0.0691433541123752  0.1546725498082440  
  0.3764081196126660  0.0055651537366779  0.6654448867372490  
  0.3236137130425240  0.5879591713891830  0.1675109535666280  
  0.3221484652324990  0.5690330887766110  0.5987282619381310  
  0.8317253454915510  0.0506661585463794  0.2056364749777200  
  0.8188809047924980  0.0496982882907779  0.7313999769115950  
  0.8214992417785220  0.5657724665140090  0.1634453172390260  
  0.8200227408058470  0.6107402627509130  0.6517343497872030  
  0.2448352376409770  0.0175451200366222  0.1715332795635350  
  0.2862287518386960  0.0200537723484296  0.6690051258085130  
  0.2476936020523610  0.5367662806455560  0.1873965205890960  
  0.2461943896742840  0.5402416054418170  0.6440029842775650  
  0.7476400112903490  0.0306342687290591  0.1742040526639280  
  0.7538810703449150  0.9857196782243129  0.7339435404512210  
  0.7451175289376090  0.5130289303886710  0.1741762192420640  
  0.7443179287022500  0.5617074837152670  0.6781215310805870  
  0.7589869587783570  0.1341663895667890  0.5132297971173320  F F F
