Sn   Cl   C    H    N    Li
   1.00000000000000     
  11.1156835556000004   0.0000000000000000   0.0000000000000000
  -0.0572679011000000  11.4386679467000008   0.0000000000000000
   0.0811114213000000   0.6570856489000000  11.5018020556000007
Sn   Cl   C    H    N    Li
8  24  8  48  8  1  
Direct
  0.5033474792313190  0.1815721528364540  0.8792015704097900  
  0.4970847259218840  0.2001975437029020  0.3666970248534840  
  0.4985733457221800  0.6727594732360280  0.8773414706881160  
  0.4989614969293380  0.6939648982976230  0.3758151375664990  
  0.0034488242538915  0.1729773621026190  0.8831245157107330  
  0.0120479021354623  0.1882417749234820  0.3742337463044830  
  0.0049302698512608  0.6698767582821600  0.8792839157609930  
  0.0017587483650942  0.6853844257852310  0.3781652248113170  
  0.2548529686690890  0.1678354544657720  0.8637204721360850  
  0.2526968690472080  0.1394868095244480  0.4001499095361190  
  0.2549161203651440  0.6392559043171840  0.8756582380586030  
  0.2591924685760310  0.7326555496401240  0.3640909869904810  
  0.7529250180117401  0.1516759806457390  0.9065956949262070  
  0.7536187625233950  0.2505728500530520  0.3424690651017520  
  0.7556749359525200  0.6859071109043320  0.8926279982805260  
  0.7583968725440560  0.6428575022879580  0.3871212190281180  
  0.5525864880731000  0.9672429068548239  0.3694615560113450  
  0.4903958936740230  0.9488234290118810  0.8715628801003560  
  0.4529491976037090  0.4685830987064040  0.3960420647160090  
  0.5255026578447800  0.4510473584648140  0.8545988113058890  
  0.9650411775286140  0.9563771568764960  0.3639786484687180  
  0.0101397371298939  0.9470106570998850  0.8917882499096970  
  0.0530596475466306  0.4579891529558590  0.3961121983549750  
  0.9808175824081260  0.4494264539482740  0.8548775727324590  
  0.0199803194775786  0.1715376387282950  0.1242241212424330  
  0.9587960490875290  0.1567346828683970  0.6236283888965900  
  0.9985181412344361  0.6447534070037080  0.1214039809685290  
  0.9975177466153450  0.6858008910206260  0.6169624767831430  
  0.4833514776237750  0.1660110037933960  0.1144607635427220  
  0.5367439243813390  0.1728867501137350  0.6115680841629070  
  0.5053388271115260  0.6510951704714970  0.1219072165567360  
  0.4929602092601390  0.6905615946083410  0.6174124594964120  
  0.2544222175610760  0.8890468116008690  0.0865329077202703  
  0.2189023335392320  0.8918255404463490  0.6373724846390300  
  0.2558542338806000  0.4046595115796040  0.1103251463784240  
  0.2527813591731110  0.3881937395261090  0.6505142018703880  
  0.7510961144124300  0.8900467525610190  0.1121857757658090  
  0.7577910573892520  0.8834737686476590  0.6165932864592720  
  0.7510879415118920  0.3933479307026480  0.0784146474362445  
  0.7547646268757680  0.4215802414629600  0.6196088661232970  
  0.3359402183593340  0.8399473990735490  0.1081536300223710  
  0.2400052809123720  0.8307533762122850  0.7101503164016010  
  0.3375345291063770  0.3565745544334590  0.1345623848595770  
  0.3344734442296110  0.3690327277167130  0.6992245154878340  
  0.7690899620044140  0.8221938030719620  0.1803098265172690  
  0.8509178746367800  0.8685204838994310  0.5971000092247210  
  0.8316835666330290  0.3406796040050620  0.0949148368292229  
  0.8360568034475701  0.3798702873222400  0.6552632038854390  
  0.2570134397257870  0.9212004270555540  0.9956230606745150  
  0.2358183541401350  0.8544823281769840  0.5539750869262500  
  0.2567000817121090  0.4269167907980180  0.0167195040526747  
  0.2550400378726040  0.3457306784781330  0.5677635399813800  
  0.8199072309717860  0.8872739696105700  0.0444352233322428  
  0.7211502194083190  0.9388536643889990  0.5485774675831220  
  0.7528476607554340  0.4307034528656240  0.9891533593426570  
  0.7587089724710480  0.4286887168062580  0.5244788796475840  
  0.1733215529827270  0.8366815567957870  0.1045716615540320  
  0.1253370750811520  0.9200349588694040  0.6394427343375140  
  0.1760249827114470  0.3520084655968910  0.1338653499220010  
  0.1706438338709240  0.3635245855585970  0.6981498289930730  
  0.6632560475850620  0.8744646500880970  0.0743071973343025  
  0.6930043807029870  0.8126746176691509  0.6229943293869030  
  0.6698812190025289  0.3400158516474490  0.0933395320352028  
  0.6739116672023340  0.3736566737523470  0.6500833082251150  
  0.1738778246760270  0.0420179501110555  0.1425242024898250  
  0.2787943861233500  0.0526363896945908  0.5824266727292160  
  0.1754783162193000  0.5630085442720451  0.1509907234202430  
  0.1742027096813840  0.5379862979304070  0.5772007462287470  
  0.7364896594640140  0.0717305078344792  0.0981594643741580  
  0.6727992361970990  0.9786894683443300  0.7390216516297869  
  0.6742424985816300  0.5435488145350900  0.1465378050764900  
  0.6720475175599810  0.5851037507909070  0.6318982967499580  
  0.2479918570905450  0.9656869136654400  0.2465309010516770  
  0.2810025038442810  0.0364772866367458  0.7285246406442420  
  0.2503277919486360  0.4985672577268180  0.2617015355199640  
  0.2490379993187040  0.5599788411691690  0.7006658413720570  
  0.6871561173906749  0.0128326769848361  0.2250846561362210  
  0.7782872502414210  0.9005420335780620  0.7924204511317640  
  0.7487170715324110  0.4601883820675850  0.2447024158791720  
  0.7457433869339700  0.5408784293454670  0.7514794391874300  
  0.3255699774858430  0.0452070902125754  0.1447875989634040  
  0.3849708781330200  0.9740195549457130  0.6524967008260640  
  0.3281761186156380  0.5663633272426540  0.1530955133286790  
  0.3265070268359810  0.5426433037571750  0.5771524892531850  
  0.8351857056892940  0.0231961198279501  0.1988773219380440  
  0.8219593076264520  0.0210800949342668  0.7219755816621229  
  0.8260107455303050  0.5437835425716380  0.1473880187237790  
  0.8240321492632370  0.5906480824861871  0.6350588138824920  
  0.2502040725365850  0.9925563254275390  0.1595887403741100  
  0.2959282562722190  0.9951361161639990  0.6518491390734860  
  0.2522872017746580  0.5150017019407150  0.1727528583863960  
  0.2506401982206030  0.5163534032076770  0.6240115663271910  
  0.7527533125309280  0.0064758806368773  0.1618660831361850  
  0.7588456241794800  0.9554020352945050  0.7221707923675480  
  0.7497623582215310  0.4909241901814950  0.1588431979123550  
  0.7484964954023500  0.5414564140702000  0.6617190451832580  
  0.7589869587783570  0.1341663895667890  0.5132297971173320  F F F
