Sn   Cl   C    H    N    Li
   1.00000000000000     
  11.1156835556000004   0.0000000000000000   0.0000000000000000
  -0.0572679011000000  11.4386679467000008   0.0000000000000000
   0.0811114213000000   0.6570856489000000  11.5018020556000007
Sn   Cl   C    H    N    Li
8  24  8  48  8  1  
Direct
  0.4992625523437680  0.1819823194875620  0.8769225737046170  
  0.4948174173352220  0.1993408681063070  0.3641073311650270  
  0.4956596576157230  0.6725316409224910  0.8742644655142230  
  0.4962522587542370  0.6934267454397570  0.3727100588639640  
  0.0010501707237336  0.1729254888624240  0.8798373987896621  
  0.0105246267828853  0.1884134951166600  0.3701662034424990  
  0.0025024357362722  0.6696739083926661  0.8762231969894240  
  0.9986363304985200  0.6851556401514880  0.3746799486633640  
  0.2514444141122550  0.1672138274641620  0.8613640268155300  
  0.2500363425052600  0.1390131385833040  0.3974662768255510  
  0.2520599717587280  0.6389237470122380  0.8726187291593520  
  0.2567033326998600  0.7315505214088480  0.3604144527066850  
  0.7499721088389329  0.1518389828814640  0.9025736465328190  
  0.7507827484242861  0.2496399547980830  0.3388735461637840  
  0.7529742626651430  0.6860021031647550  0.8893814628845040  
  0.7557524933409230  0.6425842807625940  0.3840818981831610  
  0.5505335489259330  0.9668797064880450  0.3671879459906510  
  0.4851566185568640  0.9485715072216290  0.8700198197958410  
  0.4503892899699320  0.4679478550773180  0.3933339790416280  
  0.5228078695633180  0.4510321661221060  0.8515877484980320  
  0.9631828790599209  0.9572559888013030  0.3605966640224790  
  0.0068630580525833  0.9467653215451660  0.8889514588020090  
  0.0501470052533382  0.4575473460730610  0.3933906600279090  
  0.9782605340255049  0.4494917234608250  0.8521797902721360  
  0.0169975242127533  0.1713195787280480  0.1214352355101250  
  0.9589175601682650  0.1545887810300020  0.6232848569089580  
  0.9960426974714039  0.6445449034507310  0.1184228423020800  
  0.9950694684465420  0.6854259981490310  0.6140702961617300  
  0.4805846355016550  0.1654336855248100  0.1116195706386370  
  0.5343584717809400  0.1714548291299860  0.6093234267118109  
  0.5023603259876021  0.6508924398110040  0.1189344262163620  
  0.4896559632485680  0.6895118201892350  0.6142401898326740  
  0.2518822442326030  0.8884838620743450  0.0832749680483245  
  0.2154671644818730  0.8905896815700270  0.6350815844377580  
  0.2531604344470160  0.4041598531188640  0.1075621774022080  
  0.2499314893531840  0.3885552271997080  0.6476122463599790  
  0.7484579852817690  0.8894865160410180  0.1086713647826150  
  0.7557517792332140  0.8819192015512400  0.6159304491715270  
  0.7481065794588340  0.3934251930031570  0.0748832028778591  
  0.7521920188692200  0.4212371393880430  0.6166731676573920  
  0.3331225100683310  0.8389590202772650  0.1050769304996440  
  0.2360283335722840  0.8281830659477720  0.7068432974468331  
  0.3348246512818320  0.3560545379997790  0.1318387382262390  
  0.3313575183683420  0.3687447291449360  0.6964899844790090  
  0.7664917252625860  0.8218004046353250  0.1769263352951870  
  0.8474879952125290  0.8625075659781750  0.5945960378146090  
  0.8286941512203160  0.3406961680892200  0.0911423093237996  
  0.8335420680827970  0.3796459745251310  0.6524006159530390  
  0.2547348694213060  0.9204049027324570  0.9923254159338730  
  0.2332997181345310  0.8531748899885270  0.5518028736845940  
  0.2539307355988610  0.4264422863632880  0.0139523190207861  
  0.2518501707004230  0.3455401185568570  0.5651656685033040  
  0.8172857586030720  0.8871997601891390  0.0408626147463770  
  0.7198297624737150  0.9374429276261590  0.5477142305645351  
  0.7498718154421300  0.4308404366338330  0.9856138028339010  
  0.7560784632752769  0.4284292219807240  0.5215286317755590  
  0.1711367940619990  0.8354529222007440  0.1009305031180800  
  0.1220538035803950  0.9191533527543360  0.6370078186379750  
  0.1733229837935170  0.3515310530506740  0.1311259889621040  
  0.1680744508211480  0.3637687261240700  0.6956507700392720  
  0.6605392288704350  0.8741338472283831  0.0708685062930356  
  0.6917665018584650  0.8105009361414240  0.6228412750160190  
  0.6669878731697010  0.3399525204571700  0.0897531498505113  
  0.6713714683369481  0.3732170861888500  0.6471617469858690  
  0.1710755449167600  0.0412714946168203  0.1395850920981050  
  0.2766649742395950  0.0514505929407632  0.5800002276291290  
  0.1727844398857780  0.5625433907453260  0.1481675070621140  
  0.1721542860861780  0.5390870483886810  0.5741951701175900  
  0.7332349313155579  0.0710124117933578  0.0944243126068642  
  0.6726850642980220  0.9781019743446940  0.7402848594580690  
  0.6713801636220870  0.5435933955189830  0.1431504557168300  
  0.6694277139238690  0.5848049456574770  0.6289688321300549  
  0.2447821510030340  0.9648202580592961  0.2437484442176090  
  0.2772808197156780  0.0352489236163358  0.7255678367768600  
  0.2476530369064550  0.4980510443051920  0.2589236852052560  
  0.2468891655905420  0.5608658073553420  0.6976858167750530  
  0.6848896579859530  0.0121867209285816  0.2221419466149910  
  0.7762816897317540  0.8976449676694260  0.7937146678177480  
  0.7458468917764440  0.4602968422394980  0.2412824118803460  
  0.7431208257046920  0.5406368324297049  0.7485466535349030  
  0.3225004889523940  0.0445216083737993  0.1423294620437900  
  0.3822331022829600  0.9723631153983190  0.6503284412757590  
  0.3254352458353110  0.5658750734804840  0.1502623740781520  
  0.3237731707137020  0.5430498067179910  0.5740556676683490  
  0.8326341498938540  0.0228301930796902  0.1949953907718850  
  0.8200895145129340  0.0174404996863893  0.7219020139664500  
  0.8231184765001640  0.5438752258738681  0.1439269295673270  
  0.8213601412177830  0.5904827730831920  0.6321629933260510  
  0.2472455566136860  0.9915632512538670  0.1567752993248180  
  0.2931786639570370  0.9934729788111030  0.6492797113580210  
  0.2495679714400390  0.5145092109958390  0.1699790471852710  
  0.2481708171692890  0.5166600217858770  0.6213692085617279  
  0.7500206680599940  0.0060804439722608  0.1583938577943520  
  0.7575904544051140  0.9509763662635849  0.7221842862742121  
  0.7469046529545930  0.4909385626532990  0.1553575437840980  
  0.7458830216922140  0.5411680768598430  0.6587855633873180  
  0.7589869587783570  0.1341663895667890  0.5132297971173320  F F F
