Sn   Cl   C    H    N    Li
   1.00000000000000     
  11.1156835556000004   0.0000000000000000   0.0000000000000000
  -0.0572679011000000  11.4386679467000008   0.0000000000000000
   0.0811114213000000   0.6570856489000000  11.5018020556000007
Sn   Cl   C    H    N    Li
8  24  8  48  8  1  
Direct
  0.4698640862033860  0.3505947641505110  0.9572323458476640  
  0.4761391146339360  0.3642881928884850  0.4491059559846380  
  0.4759246574173460  0.8418749784079650  0.9614806805145050  
  0.4749391755742190  0.8487687564184540  0.4588424501960790  
  0.9774351051536661  0.3434933792607040  0.9562946337685519  
  0.9840731284391701  0.3527433029300270  0.4519454103321300  
  0.9799271268918660  0.8385177933178640  0.9629120552878330  
  0.9822628904435510  0.8381018488418320  0.4594471662344040  
  0.2205659990155720  0.3533522289303490  0.9526119022668450  
  0.2201827663510780  0.2987164988444290  0.4681490735609660  
  0.2310652222331620  0.8128215912008990  0.9688464466093910  
  0.2320384788129950  0.8748064273560400  0.4542310284798450  
  0.7197668562665940  0.3154542514206280  0.9635723906437070  
  0.7207028995471541  0.4105540746186450  0.4337703665662750  
  0.7315144851575360  0.8463862444143539  0.9749514495050580  
  0.7311315223587850  0.8030266692831280  0.4717720900056600  
  0.5444060012373670  0.1171176773121110  0.4587677762574710  
  0.4449298182903710  0.1184041989721950  0.9543102635866511  
  0.4361927000035430  0.6184557622768549  0.4642364793860150  
  0.4932202309481390  0.6204918485753880  0.9397812675467470  
  0.9557972046086480  0.1019672694954580  0.4389657619537280  
  0.9970784807973290  0.1167885657709310  0.9670037634461091  
  0.0214137404339755  0.6038112891946360  0.4619661476580160  
  0.9643870747985260  0.6171247971222760  0.9400983817848561  
  0.9822280579760070  0.3351050703136830  0.1994112065698860  
  0.9589473858031420  0.3264434637573710  0.6954562305298490  
  0.9729753589458140  0.8106191654340110  0.2031087709609350  
  0.9767759181278640  0.8392941222168180  0.6983314503341330  
  0.4642161468343360  0.3309322327365500  0.1894691767003550  
  0.4875246663262720  0.3437201783232860  0.6870738987974080  
  0.4828468829686010  0.8165228732386320  0.2020316907624880  
  0.4727326991604700  0.8403137768192370  0.6955269309519601  
  0.2260759647791020  0.0481164370498890  0.1805978089205610  
  0.2099904505114880  0.0537808014895327  0.7058399455188620  
  0.2290891718123760  0.5649142051702420  0.1878292107215360  
  0.2253445108753640  0.5567134664821770  0.7120270175971900  
  0.7283199526328370  0.0636560180474474  0.1795101266651260  
  0.7429720912037450  0.0378465171696656  0.7458757601049040  
  0.7258272345938890  0.5582793767129440  0.1564052414978220  
  0.7299820201876520  0.5756275609703410  0.7022516367473650  
  0.3063839109691420  0.0051108565705420  0.2155756051997590  
  0.2661979241751490  0.9923880375725420  0.7555136821417910  
  0.3101762506709780  0.5158893193206590  0.2121226165012330  
  0.3077095650235160  0.5220202677746300  0.7501044339420460  
  0.7801506829890480  0.0027980570496351  0.2355675865351420  
  0.8219619641189260  0.0205332089834061  0.7973354783190910  
  0.8057374079346570  0.5042616976977981  0.1710249127966540  
  0.8104180248382690  0.5318600988265960  0.7368999203544940  
  0.2311740058833670  0.0545266480967094  0.0858620289363618  
  0.2193496056232560  0.0472526726146491  0.6127494862845720  
  0.2294812341340920  0.5864848801812320  0.0941734908137785  
  0.2253282233121950  0.5433235825815110  0.6189949643673940  
  0.7715593161201481  0.0706234903539906  0.0940969207237549  
  0.7775258242737700  0.0170793634364642  0.6598899115945610  
  0.7284978266152490  0.6003732269236890  0.0689817104423649  
  0.7343808588926560  0.5825830474108400  0.6072671034394050  
  0.1439301055033940  0.0024508314243225  0.2097130263080080  
  0.1152931304738940  0.0412584374579134  0.7276297964542570  
  0.1484123668349680  0.5139775507817540  0.2124062778294300  
  0.1428563515895190  0.5206108593869671  0.7511923648326860  
  0.6376017065747790  0.0290095463009339  0.1718883835663200  
  0.6584156189814380  0.9902499297228150  0.7499917308149791  
  0.6438555797062721  0.5056556557861570  0.1685544269202970  
  0.6478734319611690  0.5292551302779420  0.7311481180663310  
  0.1471255456154880  0.2129829328351770  0.1914061779613160  
  0.1902088811753320  0.2295438645014550  0.6945143700625040  
  0.1517525949472100  0.7246612481482730  0.2279562619466760  
  0.1502193247357540  0.7216968457223170  0.6918748526550150  
  0.6771269565702540  0.2404889776754270  0.1717515668150700  
  0.6547116939377160  0.1808982660162210  0.7150219634508420  
  0.6502942408580000  0.7046640715545350  0.2315884123171990  
  0.6503767067308051  0.7403030536231480  0.7171092202205510  
  0.2173576823505080  0.1672857869821910  0.3118275232550830  
  0.2368079658096350  0.1850186496809050  0.8278603094782480  
  0.2267666255817460  0.6598492511641270  0.3384243648898800  
  0.2267319592824260  0.7011072795915479  0.8153738672210920  
  0.6734075495509100  0.1808703284280040  0.3001965465736830  
  0.7061457280557850  0.1784389823938670  0.8475782399630210  
  0.7230928202065970  0.6142444548445271  0.3262440838536000  
  0.7222847533033420  0.6935323831718510  0.8365478917641080  
  0.2986723701984610  0.2157061868587550  0.1970143392915640  
  0.3334266797415230  0.1881728040277720  0.7222116402205180  
  0.3040696635732570  0.7262381751573150  0.2287420218528710  
  0.3030027997657670  0.7226918292340370  0.6903918236865770  
  0.8098763700933230  0.2156441633577150  0.2367846870765290  
  0.8036200015165820  0.2160518803127700  0.7470122979945090  
  0.8016045135041430  0.7035108179134530  0.2332476027223110  
  0.8022478342957690  0.7430213411674360  0.7214007301610290  
  0.2222208373897150  0.1688507412203830  0.2220989569090640  
  0.2450459093362470  0.1715994230184350  0.7403621113731710  
  0.2279522626633940  0.6757894920862270  0.2494572474930830  
  0.2267936730830930  0.6842681304336790  0.7278574242707340  
  0.7244971525081110  0.1816691682347240  0.2251701694290300  
  0.7287989176505240  0.1648718437667360  0.7623657770671211  
  0.7250830153144250  0.6508594939323210  0.2422734880799330  
  0.7258138099530050  0.6948538842357510  0.7468218249831630  
  0.7589869587783570  0.1341663895667890  0.5132297971173320  F F F
