Sn   Cl   C    H    N    Li
   1.00000000000000     
  11.1156835556000004   0.0000000000000000   0.0000000000000000
  -0.0572679011000000  11.4386679467000008   0.0000000000000000
   0.0811114213000000   0.6570856489000000  11.5018020556000007
Sn   Cl   C    H    N    Li
8  24  8  48  8  1  
Direct
  0.4567611607067190  0.3604919361655350  0.9562675097160970  
  0.4677006307607920  0.3708559417634980  0.4492955153882430  
  0.4659083873888500  0.8509146619182860  0.9607892433483550  
  0.4673466978106830  0.8580858405758710  0.4566539307264580  
  0.9672802126551970  0.3550745009463910  0.9533255475624620  
  0.9740943201180410  0.3650273764846910  0.4506974178956820  
  0.9701037239866460  0.8478144541149680  0.9622148317684770  
  0.9719613082799660  0.8469792912192780  0.4571067668794170  
  0.2076748296090240  0.3623151919063020  0.9505011714953761  
  0.2116528080003540  0.3067440570692530  0.4677029431787150  
  0.2211361204366550  0.8215000514494830  0.9679634940894130  
  0.2241042437633600  0.8821329453938920  0.4521124490289460  
  0.7083710402922700  0.3272606488562290  0.9603859445484030  
  0.7110816731682770  0.4163465481526660  0.4334362031514500  
  0.7215700421832100  0.8558540978395280  0.9745266659126570  
  0.7215237268219160  0.8109864630756500  0.4710681735261020  
  0.5399627976126880  0.1257257804510490  0.4601383293296490  
  0.4311060320259500  0.1284457724305670  0.9547849236994980  
  0.4266996335324510  0.6256986225393160  0.4635732543586090  
  0.4831152561808710  0.6303782266969050  0.9378616955137250  
  0.9545248320031831  0.1191635882054260  0.4287150065940780  
  0.9865772402997920  0.1258629928768470  0.9664693231517900  
  0.0113678160312495  0.6125170188755590  0.4609012643387190  
  0.9547963309923990  0.6266782612043920  0.9385414152258370  
  0.9724108813232520  0.3436727576041080  0.1990754125297620  
  0.9485124475982610  0.3329368482793830  0.6946441267689080  
  0.9629636321542250  0.8194331587001210  0.2023547133480050  
  0.9671310942639000  0.8474044115484470  0.6970164492685440  
  0.4540357974721010  0.3395034454001240  0.1896244353455810  
  0.4786919463349000  0.3501022848708990  0.6870185662002199  
  0.4729378555397480  0.8251616727986760  0.2013801777150740  
  0.4631939778677960  0.8472556351822170  0.6922323785037030  
  0.2167367182573710  0.0563291306156412  0.1796188435344750  
  0.2006391335554270  0.0610885309317457  0.7045129721054210  
  0.2193352275282660  0.5732394224478000  0.1872496522339150  
  0.2155442984715570  0.5664249677281950  0.7109083152233860  
  0.7177802285612670  0.0737172606035537  0.1753497731291460  
  0.7325801804390170  0.0430885271988794  0.7490821593023550  
  0.7154932401527559  0.5672887140256631  0.1556565136570630  
  0.7202361936989030  0.5827574674162520  0.7013741263232260  
  0.2969992101965750  0.0133637633861591  0.2148076193522110  
  0.2567526906078430  0.9994275477289100  0.7539570814856650  
  0.3003256072242560  0.5241671990058070  0.2117726657142220  
  0.2975788613387020  0.5308808994243081  0.7488828263490011  
  0.7710342061185350  0.0131960433401436  0.2303909239692240  
  0.8087667470755470  0.0222921069545478  0.8029441184163820  
  0.7953938117370810  0.5131856308652960  0.1699245190115020  
  0.8006166997427400  0.5388791853626250  0.7359809597094989  
  0.2217662070077630  0.0627449925784755  0.0848944357521040  
  0.2114646055385380  0.0546565314446791  0.6115573970509980  
  0.2196648327998510  0.5948678024088540  0.0936052543309091  
  0.2153404876950710  0.5521935528283870  0.6180282180731990  
  0.7590166140006070  0.0816421758547534  0.0889895862995295  
  0.7670033276578290  0.0204645049319502  0.6636814574129000  
  0.7181201406121200  0.6099568446041890  0.0685004902984142  
  0.7246357415977340  0.5893448687078300  0.6063616475875200  
  0.1348049766327160  0.0100969115478483  0.2084123370402670  
  0.1059395315787850  0.0475368647133714  0.7254475459334681  
  0.1386711313484010  0.5223150889248620  0.2118931605455580  
  0.1329461284006760  0.5306720846349140  0.7500880666436950  
  0.6272102917679150  0.0384888572887438  0.1692279147972320  
  0.6471904598268290  0.9975014598492110  0.7552850938839760  
  0.6336392026456440  0.5145197531240200  0.1679489923103890  
  0.6381972847498320  0.5363302274421340  0.7303434479756290  
  0.1373616698171060  0.2209943659056720  0.1907915961617010  
  0.1795740553334080  0.2371449252491240  0.6934686155525400  
  0.1421564229555860  0.7331391016429020  0.2271226258175850  
  0.1416340758392860  0.7324020793250290  0.6898983956063039  
  0.6655411712488190  0.2492549933128810  0.1700472373166610  
  0.6484008972981530  0.1880216233418020  0.7160889568452390  
  0.6403071809253410  0.7133062919279129  0.2315171528694750  
  0.6409711915519400  0.7478325603917190  0.7155343026162770  
  0.2075632217035500  0.1751298165060640  0.3113568179547420  
  0.2250999268611830  0.1926987861785690  0.8263080981694230  
  0.2171321204555130  0.6682240917510870  0.3376988571211180  
  0.2176883819931220  0.7116188792484380  0.8135166800755770  
  0.6653240371665240  0.1891931725527540  0.3001131274605020  
  0.6969923730232710  0.1847692551880720  0.8510252134589760  
  0.7131409767573730  0.6220953624930580  0.3257167703981810  
  0.7126979570657710  0.7014154792895640  0.8350009577368600  
  0.2887843475488250  0.2239282769614820  0.1969046740995640  
  0.3233162615466150  0.1960842462449520  0.7217093773831030  
  0.2944019444509410  0.7345970986998140  0.2279984514845810  
  0.2938654439625290  0.7321121195127660  0.6885002722128361  
  0.7989074481103080  0.2251539347443170  0.2334743005571840  
  0.7953299559368620  0.2202262128854220  0.7500993504198820  
  0.7915101251068840  0.7121628929797480  0.2329381337353940  
  0.7927393773998100  0.7504407001666410  0.7198296689146190  
  0.2123692928967330  0.1768086941634400  0.2216382809937440  
  0.2347851057774030  0.1791897015638090  0.7389478247390741  
  0.2182707662645210  0.6841898575770869  0.2487442146045320  
  0.2175872936090650  0.6939833159676581  0.7261800266291349  
  0.7135206249764380  0.1907930077991670  0.2232588786844750  
  0.7201925106551600  0.1697475317716580  0.7661628249288910  
  0.7150586758932370  0.6593979195434080  0.2420293800085280  
  0.7163195428664501  0.7022374210604230  0.7452787093662560  
  0.7589869587783570  0.1341663895667890  0.5132297971173320  F F F
