Sn   Cl   C    H    N    Li
   1.00000000000000     
  11.1156835556000004   0.0000000000000000   0.0000000000000000
  -0.0572679011000000  11.4386679467000008   0.0000000000000000
   0.0811114213000000   0.6570856489000000  11.5018020556000007
Sn   Cl   C    H    N    Li
8  24  8  48  8  1  
Direct
  0.4733851257842210  0.3000628513380810  0.9426321590870100  
  0.4773531525900220  0.3142511907609050  0.4329703405220700  
  0.4778414908725350  0.7907471629787240  0.9451168623271750  
  0.4769645638875600  0.8002364920759610  0.4425906534478250  
  0.9801949740540991  0.2920832919967260  0.9419898271372830  
  0.9904295475852190  0.3046795858156600  0.4356876834770100  
  0.9824475260631140  0.7874970832654600  0.9466504702707090  
  0.9834463932370070  0.7903038448041630  0.4435698742348390  
  0.2245279405511960  0.2990801754158280  0.9359248797778740  
  0.2243109561322230  0.2495701955445280  0.4547990199296460  
  0.2332261460902370  0.7607960752560030  0.9506661451836540  
  0.2349463351871760  0.8285336420040090  0.4362269347243460  
  0.7238266331563690  0.2654362705917170  0.9521937553053950  
  0.7235532888643010  0.3659952543015870  0.4151093827682670  
  0.7337914051708390  0.7970711242504360  0.9588927253088270  
  0.7340428068952840  0.7538388195243280  0.4553931980337900  
  0.5449955181174500  0.0679219819216783  0.4418524545930910  
  0.4498455867853260  0.0670519926560610  0.9389300233054750  
  0.4369510028525580  0.5713262395569350  0.4511517936874410  
  0.4970738270930050  0.5695038512840590  0.9233283475806410  
  0.9522257594135390  0.0529176413645921  0.4242924552154480  
  0.9969713247697780  0.0654991302038089  0.9524735424029550  
  0.0250344598985185  0.5573479506690260  0.4493460924471550  
  0.9652191681583560  0.5664812095050969  0.9236778701764030  
  0.9870199182694610  0.2851542605714360  0.1849210878565700  
  0.9569224417578320  0.2758785646251540  0.6823021854323860  
  0.9756328102454370  0.7602403785550210  0.1872394467270590  
  0.9784188054311980  0.7912898171271330  0.6826448740562010  
  0.4655512658877690  0.2805501094764960  0.1748635701307930  
  0.4944683600916180  0.2931682559810510  0.6712987309496430  
  0.4846748001083620  0.7662034571210080  0.1864833637806060  
  0.4733280680244140  0.7924194332723790  0.6802455255395859  
  0.2292256869063560  0.9984230179167110  0.1620679760333550  
  0.2087433193615050  0.0027824682002590  0.6930007744916500  
  0.2318631229056550  0.5155143860457020  0.1728582161383940  
  0.2281217503484030  0.5054916344289400  0.7004624681251220  
  0.7305255685867280  0.0106283639375051  0.1665018542012060  
  0.7455575284344930  0.9839776052901100  0.7198110035343110  
  0.7282384608720440  0.5081767620014150  0.1410015864032300  
  0.7324247629232870  0.5274133116623930  0.6863069947302221  
  0.3098054028154440  0.9540132060514940  0.1945386465031040  
  0.2580348754659890  0.9397435760769950  0.7476978501385650  
  0.3130791131399080  0.4666838115889410  0.1971174042285490  
  0.3105661812482500  0.4738710464591480  0.7408695583725310  
  0.7755683019533860  0.9485110694736560  0.2268386548907080  
  0.8329669739371530  0.9622657092017740  0.7532053577931230  
  0.8083153231472090  0.4544336951557870  0.1558470080415810  
  0.8129905138842710  0.4840076432146190  0.7210864460390730  
  0.2339546484502810  0.0101561329191306  0.0675607765081188  
  0.2207756529139810  0.9906703295488640  0.6010314301538060  
  0.2323350604119640  0.5372006991618840  0.0792074599417962  
  0.2284270146674340  0.4860332527193410  0.6087400245301210  
  0.7794040652502270  0.0160904467499689  0.0839549210728958  
  0.7631700827709040  0.9791006585078900  0.6267628682371850  
  0.7307425198797820  0.5492897161985471  0.0531829497852799  
  0.7367334477071710  0.5345050087859891  0.5913376707543890  
  0.1472426260274960  0.9512638559394330  0.1890380957154760  
  0.1126015808597100  0.9993119437076921  0.7112457628999000  
  0.1513463787098850  0.4642489286387920  0.1972284141934750  
  0.1455896916302710  0.4716740198010220  0.7414795080267790  
  0.6393174248548750  0.9799179694321990  0.1524412109030430  
  0.6627348928590460  0.9337181957692520  0.7269877370294739  
  0.6464246465018590  0.4553657777782890  0.1536297490992470  
  0.6506039465938940  0.4806667905770700  0.7153879739968720  
  0.1497846328621200  0.1617246422477030  0.1821855938179110  
  0.2045645304290200  0.1784621321591490  0.6721497458528800  
  0.1539086523160930  0.6749811205934170  0.2130893117193740  
  0.1523348712529610  0.6686815219387270  0.6691279458557930  
  0.6857840070134820  0.1892201194123330  0.1564098263841290  
  0.6526615020764960  0.1261414709666610  0.7261666890503070  
  0.6524290109216090  0.6554375093201870  0.2147995907647910  
  0.6522096232814080  0.6919344139691910  0.7006364729957750  
  0.2207490841429430  0.1095044234500630  0.2999385384108730  
  0.2417583239537100  0.1381258010208020  0.8093420609258620  
  0.2288929849668650  0.6102569938463360  0.3236173469323070  
  0.2287063238010870  0.6567183385913170  0.7936370324951580  
  0.6730656022763640  0.1273912043121580  0.2848716807341510  
  0.7181882249205460  0.1047420243613020  0.8490510941392800  
  0.7255980935759880  0.5668611157797270  0.3101316896729650  
  0.7244574437539030  0.6456795141811020  0.8200897450920750  
  0.3014648453082680  0.1644835586265910  0.1872268257241580  
  0.3422797998253850  0.1278188637772380  0.7082388210942300  
  0.3062897157301800  0.6769223464262339  0.2141327674498450  
  0.3051549239538620  0.6703098102642669  0.6679437720405610  
  0.8135912959261670  0.1590660224240290  0.2272409432488150  
  0.8046949590308980  0.1609568384321330  0.7491627867502550  
  0.8039308211162230  0.6545821592975219  0.2162903981036180  
  0.8040833961721260  0.6952278419672390  0.7047156272317620  
  0.2251895542165380  0.1163747839320100  0.2102500950768940  
  0.2524247108226370  0.1191408241883450  0.7233339776605230  
  0.2302289759291030  0.6262819975808520  0.2346507443222240  
  0.2289951641225090  0.6342271907292250  0.7076042233801479  
  0.7276256277081620  0.1285178832964440  0.2122526688262330  
  0.7324650642433340  0.1052964062125020  0.7606440109184410  
  0.7274195736220200  0.6019291881901671  0.2256397002205960  
  0.7278396661186440  0.6468144397881170  0.7303608188159560  
  0.7589869587783570  0.1341663895667890  0.5132297971173320  F F F
