Sn   Cl   C    H    N    Li
   1.00000000000000     
  11.1156835556000004   0.0000000000000000   0.0000000000000000
  -0.0572679011000000  11.4386679467000008   0.0000000000000000
   0.0811114213000000   0.6570856489000000  11.5018020556000007
Sn   Cl   C    H    N    Li
8  24  8  48  8  1  
Direct
  0.4818380490313870  0.4586626597730780  0.9773889462592080  
  0.4881527443770460  0.4739494672443410  0.4757329852062050  
  0.4880397998359580  0.9541043522425410  0.9890707693790020  
  0.4844368765377030  0.9526775066559550  0.4860558154259210  
  0.9861762816398140  0.4552137674786170  0.9791249339981239  
  0.9906177761365860  0.4572803282037040  0.4765638676066370  
  0.9903158228762730  0.9505203319235340  0.9900836291990880  
  0.9971149634645010  0.9399945517060970  0.4862454338450100  
  0.2279150235543740  0.4742613810294710  0.9798685832924050  
  0.2262635377267520  0.4048867912929990  0.4857274644179470  
  0.2425951626377330  0.9274731825577360  0.0022780126235310  
  0.2410997860917760  0.9746001753355100  0.4878748370812110  
  0.7257161135788061  0.4214398982079560  0.9809080490435470  
  0.7275198453676890  0.5191267831680469  0.4610530043737960  
  0.7426013548544090  0.9532765930827199  0.0013516061237827  
  0.7401679704440119  0.9101703963380930  0.4997733702491630  
  0.5723310674789690  0.2224041625208790  0.4912484136780620  
  0.4496049207837980  0.2314299239351620  0.9778988957169070  
  0.4513325176907370  0.7189695927088851  0.4821803119960680  
  0.5000632483579630  0.7307789242780970  0.9675390335411890  
  0.9478905795389250  0.2043422489134780  0.4749907412978390  
  0.0161822337776595  0.2294505300744030  0.9896435927588020  
  0.0297281886774527  0.7016966065015821  0.4789669027209980  
  0.9794037747563220  0.7272930874653299  0.9679655438208330  
  0.9869231898923890  0.4433022077821430  0.2213546098365440  
  0.9818050726596100  0.4367262438142960  0.7192454864403240  
  0.9830628873050880  0.9210744121672750  0.2290356966682220  
  0.9893996331375020  0.9421616313266410  0.7243262231426840  
  0.4797601206074690  0.4394110274588070  0.2123201680650980  
  0.4891915974398050  0.4491877438334340  0.7117237164433931  
  0.4950301859456050  0.9266100310435620  0.2271153334586230  
  0.4870211937954820  0.9449530464898710  0.7220096010430500  
  0.2352102581873720  0.1579036394225540  0.2153150575790550  
  0.2310652191325060  0.1690148504327040  0.7230766187309871  
  0.2389114188169320  0.6717611140286460  0.2113398052081980  
  0.2360758016388980  0.6691088326109400  0.7256924415914709  
  0.7406933523439810  0.1801360594202370  0.2034295742376410  
  0.7533696826305010  0.1658162293729660  0.7777469422345820  
  0.7364423985008500  0.6674818603756840  0.1803355110635350  
  0.7404687606866470  0.6781347505945740  0.7296103887570560  
  0.3147011326363770  0.1195778510929680  0.2571639922667390  
  0.3052836953906920  0.1166196533639370  0.7580747285756890  
  0.3196370346154280  0.6220906862060150  0.2355527672103470  
  0.3177698594630990  0.6256646964583380  0.7561853937077800  
  0.8096198808721140  0.1268375431369900  0.2477907055262160  
  0.8060100390545570  0.1668448993384020  0.8568794199279370  
  0.8158937121987870  0.6125654518705110  0.1938951035035110  
  0.8201052285707390  0.6327301652960819  0.7640938795085340  
  0.2408429721669670  0.1490687473785210  0.1215421858167050  
  0.2312761034627540  0.1754226310114990  0.6285456776248280  
  0.2390515633041020  0.6929768577548170  0.1176739981486140  
  0.2351825908402720  0.6746486234294620  0.6309288486300340  
  0.7666562816847480  0.1912819698755930  0.1119089601159340  
  0.8125922969934380  0.1284088163510710  0.7133375057435790  
  0.7396108338367150  0.7120632035741340  0.0940281320062209  
  0.7451500947297990  0.6864619790054090  0.6346652458554570  
  0.1525672076651350  0.1171584234244660  0.2503266696998160  
  0.1449941870639510  0.1320892615708960  0.7528601713795370  
  0.1578356197523220  0.6217203411426360  0.2365718244206940  
  0.1541377991770710  0.6260158614779761  0.7588575679031710  
  0.6536085439149810  0.1357816778491040  0.2109359647478600  
  0.6677980968803930  0.1196985342765900  0.7823877235188620  
  0.6542098929195660  0.6149926755806110  0.1907821059242410  
  0.6580307513980220  0.6317736957896450  0.7576443689261601  
  0.1581133383501590  0.3246768638448650  0.1991625589303920  
  0.1733640854667330  0.3383670140790000  0.7378084484354061  
  0.1632164217677820  0.8323405172366100  0.2512033749849410  
  0.1619317694672190  0.8349982623603330  0.7388209387561910  
  0.6720485872979221  0.3496140982649530  0.2093292293397060  
  0.6814854441323011  0.2939369004244710  0.6745881933896570  
  0.6615091858639370  0.8119905707250890  0.2591695842836840  
  0.6626818762927400  0.8434018933954790  0.7457581295718581  
  0.2269583907693990  0.2986318952931550  0.3251602684427820  
  0.2437788198366930  0.2864250110404850  0.8585253706589500  
  0.2383402052390250  0.7673046220072340  0.3614321443551060  
  0.2388533430227090  0.7901465793165160  0.8561013265690069  
  0.7025622963412240  0.2918641147628130  0.3384168868040410  
  0.6963877701094270  0.3294213309081700  0.8120177355739910  
  0.7333292533929570  0.7182259024543540  0.3517561218681400  
  0.7335465977920260  0.7946738582699790  0.8650645716924340  
  0.3094887856673340  0.3273080394163960  0.2060086300337140  
  0.3244202637373960  0.3251317912453360  0.7436315066245390  
  0.3152815240126970  0.8329728320315560  0.2511135946609360  
  0.3147462305536870  0.8348472693314990  0.7365141983913320  
  0.8167068593670990  0.3390688061920070  0.2522740253002960  
  0.8189867470749680  0.3346817423161610  0.7292156162196080  
  0.8126193684083330  0.8100239733966290  0.2613168907744300  
  0.8144810722099730  0.8445520093923260  0.7507026963826960  
  0.2323953363662790  0.2847258355611530  0.2369262160273990  
  0.2438244919962030  0.2869695923631530  0.7690181687473360  
  0.2390860315620530  0.7829772048816060  0.2724568079837770  
  0.2383348011157220  0.7900890359452600  0.7663549509501160  
  0.7338446576345570  0.2965331955592640  0.2535072831601370  
  0.7385717034350650  0.2909338486985150  0.7437745945994190  
  0.7359116521267610  0.7575838951341139  0.2687925419974670  
  0.7375442175464220  0.7969190563536710  0.7753942842472969  
  0.7589869587783570  0.1341663895667890  0.5132297971173320  F F F
