Sn   Cl   C    H    N    Li
   1.00000000000000     
  11.1156835556000004   0.0000000000000000   0.0000000000000000
  -0.0572679011000000  11.4386679467000008   0.0000000000000000
   0.0811114213000000   0.6570856489000000  11.5018020556000007
Sn   Cl   C    H    N    Li
8  24  8  48  8  1  
Direct
  0.5184503724022150  0.1189492116876000  0.8433160028898000  
  0.5077153482223610  0.1404965848205020  0.3310001773014880  
  0.5077161496613281  0.6108949029673110  0.8390193877568420  
  0.5101013913364540  0.6419585633098500  0.3387680946637610  
  0.0145233063202561  0.1108135741963430  0.8510085037560809  
  0.0200812372941133  0.1297544244202610  0.3421540066856690  
  0.0152855277803563  0.6083060618624140  0.8412528065934400  
  0.0092937877971571  0.6331313139374120  0.3415154636186750  
  0.2714549764297100  0.0961484146344211  0.8201420907922780  
  0.2690029503735140  0.0822380053549809  0.3743368596121880  
  0.2648202613821920  0.5746854725876460  0.8319723988024490  
  0.2712074486750540  0.6877433583690410  0.3236572475946280  
  0.7681387170058830  0.0936975043208253  0.8844767118852800  
  0.7686142256422480  0.1834933212286360  0.3160403842429040  
  0.7656383002633720  0.6291434162689510  0.8554840696337980  
  0.7701995513734780  0.5857602047441830  0.3483374962455450  
  0.5519157847194150  0.9172625114129130  0.3293541721039650  
  0.5169616315204000  0.8873468372776619  0.8300220894420020  
  0.4585616333917120  0.4178505779573530  0.3672891584440400  
  0.5400743960737900  0.3891525813127020  0.8150192404865400  
  0.9749188985869710  0.9081484395856561  0.3274994465372120  
  0.0139147497672916  0.8848605613149640  0.8588589108062550  
  0.0679649379398911  0.4104659483788340  0.3686185430447230  
  0.9859703649732799  0.3884383669437680  0.8153218847169380  
  0.0387365643373329  0.1126303685279260  0.0914345719206241  
  0.9460961114809060  0.0946838004735895  0.5870375090618370  
  0.0090496389720120  0.5845994786459910  0.0845532465169548  
  0.0053673520768980  0.6332388899640580  0.5799334142013191  
  0.4896718539230440  0.1069246159389200  0.0821979110724075  
  0.5631126082854350  0.1116025552626040  0.5763763702488490  
  0.5145194871324100  0.5912169539157960  0.0860261969337473  
  0.5029535744659440  0.6413024222783210  0.5818159558973700  
  0.2668135390536790  0.8352762728177520  0.0441362581422295  
  0.2239485826746630  0.8372105718707670  0.6065936305253160  
  0.2675294099055030  0.3480869262858140  0.0759671483990875  
  0.2649873114862730  0.3289760864094310  0.6230347859940040  
  0.7596978347499300  0.8260707338704920  0.0822873081855594  
  0.7573221020073660  0.8413696230230590  0.5710094880045981  
  0.7617234113540750  0.3335495621575090  0.0447376304697767  
  0.7649936425181640  0.3684138626436390  0.5815933739754920  
  0.3484039926314220  0.7831976859400420  0.0573651527445161  
  0.2260395805167160  0.7822174360145090  0.6873818107787790  
  0.3495083809237980  0.3005169852250940  0.1003480186609270  
  0.3448970591270710  0.3184483722444660  0.6773102826000820  
  0.7586194716470490  0.7580900845233820  0.1531622178354010  
  0.8469909836995000  0.8315980012239010  0.5334730380674000  
  0.8424537439292460  0.2816070781258170  0.0628998637551741  
  0.8467399735119360  0.3277228540570430  0.6174089155020150  
  0.2676498360067640  0.8801633259673840  0.9577956211535640  
  0.2403948342524990  0.7844606523853860  0.5318764707305440  
  0.2686080618696120  0.3708855751629360  0.9824045384429940  
  0.2693102797769840  0.2711714255020000  0.5505971184641590  
  0.8389868564849779  0.8166372435123290  0.0269162848146933  
  0.7072252861461810  0.9098212946142989  0.5222670898509610  
  0.7629548513225340  0.3682378020111090  0.9544582218848990  
  0.7687187810531690  0.3741838668905020  0.4864310140613180  
  0.1869580208278810  0.7792891877920400  0.0548879360788664  
  0.1368650858538190  0.8809391274610240  0.5979817847716870  
  0.1882447914451510  0.2943690500210720  0.0989066757178861  
  0.1839125599681530  0.3110232214069590  0.6754475848411260  
  0.6779558400962770  0.8206948929229410  0.0304982100460384  
  0.7058461336732400  0.7598563638818970  0.5688499184180930  
  0.6811962562640640  0.2798183771904950  0.0618469652608271  
  0.6847826551603280  0.3198665660655680  0.6128645737291680  
  0.1865496321873420  0.9773333208265820  0.1239689686504220  
  0.3206461678488520  0.9808089108467740  0.5335062187321490  
  0.1853429320543630  0.5056422320981900  0.1168990968659830  
  0.1855441185470580  0.4653557553787840  0.5230614382903840  
  0.7666566920279480  0.0086607146674901  0.0668404306815908  
  0.6857428617548350  0.8924883305701350  0.7307929707849670  
  0.6843039033827010  0.4856700656708030  0.1084019662202070  
  0.6805136707428640  0.5314599582583300  0.5923908148582220  
  0.2626218578014580  0.8855077482687320  0.2159262796113920  
  0.3055119389333090  0.9824222411154920  0.6790789910460550  
  0.2600788931167340  0.4413783368651250  0.2277651546667640  
  0.2579199176483910  0.5094980326465290  0.6420122606311760  
  0.6903319416507850  0.9544602026384210  0.1861657736514300  
  0.8022087515668770  0.8038474401365250  0.7460266300034351  
  0.7596246244994280  0.4051839640800090  0.2087644429901770  
  0.7552198669460090  0.4889503256764810  0.7120009990304650  
  0.3371093221862220  0.9810176658590680  0.1246067592087390  
  0.4038721399307820  0.8918436981288580  0.6220945335784530  
  0.3382687574826610  0.5100061483509770  0.1198253524122920  
  0.3356388268367030  0.4718293711285460  0.5236177540505680  
  0.8405934977347910  0.9499738620320040  0.1842582118949530  
  0.8259391011775010  0.9435392069965040  0.7008032481528670  
  0.8359372630480550  0.4866899725305730  0.1087313833583130  
  0.8324926749749950  0.5385971701766340  0.5948367008052799  
  0.2628190918606580  0.9251077716151580  0.1329820953150980  
  0.3199969831463810  0.9281853916093320  0.6102883965481690  
  0.2624963837121700  0.4581257420531950  0.1388342836344060  
  0.2605737611756960  0.4526080599462990  0.5751964078888530  
  0.7646626574437980  0.9429266656267010  0.1329165863751120  
  0.7687570774274730  0.8728304406422600  0.6939004561946220  
  0.7600583829394290  0.4335309671401940  0.1222079322551550  
  0.7575256584692880  0.4887725949332830  0.6221974816436450  
  0.7589869587783570  0.1341663895667890  0.5132297971173320  F F F
