Sn   Cl   C    H    N    Li
   1.00000000000000     
  11.1156835556000004   0.0000000000000000   0.0000000000000000
  -0.0572679011000000  11.4386679467000008   0.0000000000000000
   0.0811114213000000   0.6570856489000000  11.5018020556000007
Sn   Cl   C    H    N    Li
8  24  8  48  8  1  
Direct
  0.4893263784218130  0.2325968168425440  0.9111586105050040  
  0.4876019662018850  0.2487971393770770  0.3990702659514020  
  0.4894006931884070  0.7230307227576560  0.9107452606714570  
  0.4887160222766120  0.7378597641363570  0.4085480498685610  
  0.9931398575245000  0.2236482261909300  0.9121755588950490  
  0.0047753853985759  0.2379966484009470  0.4033542877036140  
  0.9950573114649260  0.7199651929233900  0.9124875639621129  
  0.9937209239060310  0.7291416233866240  0.4103838983589950  
  0.2407398926956580  0.2247619940937580  0.9000690654207290  
  0.2397355422541070  0.1859371190702740  0.4265097430670010  
  0.2452744937077990  0.6912807198439450  0.9126968361405911  
  0.2482772141058660  0.7714192543063010  0.3992191194020570  
  0.7396880303741670  0.1996342351888580  0.9289319646253700  
  0.7390464128875340  0.3050119630022060  0.3749056928714270  
  0.7460074327683039  0.7328710373916900  0.9251853089830350  
  0.7474958357662880  0.6898669533988330  0.4209106878795630  
  0.5506129869343810  0.0086665146269446  0.4052828146460980  
  0.4701853936707200  0.9991748414233230  0.9057889462585740  
  0.4461468123011700  0.5113902157141380  0.4232595156099240  
  0.5126011974135090  0.5015691900939810  0.8886354714562650  
  0.9570301535152540  0.9965064501883920  0.3949361711902750  
  0.0046603261188839  0.9974742701830011  0.9217152527001170  
  0.0402102219166405  0.4988688902087410  0.4224231676723870  
  0.9743443002664520  0.4992392910532100  0.8889887998370750  
  0.0045570517423690  0.2196831691766050  0.1541603422116610  
  0.9601850303005910  0.2078347932701710  0.6539448476948320  
  0.9885136150608580  0.6938957059471480  0.1538565034876360  
  0.9892753014490420  0.7297741503484449  0.6495031265409600  
  0.4758813359144490  0.2143941420238720  0.1440820031131640  
  0.5174452554887650  0.2240254276518720  0.6404772648142070  
  0.4961078490920830  0.7000444009795750  0.1537279283962980  
  0.4833905346651480  0.7322353482306980  0.6485697099247880  
  0.2431304865710230  0.9344969737883770  0.1235541504246550  
  0.2143044172234420  0.9374557358694811  0.6653469924433910  
  0.2450724360159250  0.4513275465091520  0.1411841690036650  
  0.2416689580348870  0.4377609475260920  0.6754575511519970  
  0.7422326244813080  0.9413574787336100  0.1391124885903200  
  0.7551090043774510  0.9201577192880490  0.6660584581579320  
  0.7408832491369690  0.4423261743791910  0.1087860158856070  
  0.7449063053017200  0.4656129366387080  0.6526393282459449  
  0.3242189364981090  0.8875231919265870  0.1507019629270010  
  0.2493264468290990  0.8736695965425400  0.7295995036702910  
  0.3265376097745760  0.4028769298375110  0.1653788638961320  
  0.3239648517050140  0.4123336433926380  0.7201650442530820  
  0.7738549426110860  0.8756167153614520  0.2040427654270970  
  0.8490155336422340  0.8992709276098680  0.6651822643948260  
  0.8212795508695200  0.3891172757787800  0.1242552438667190  
  0.8257801173969890  0.4229909847653940  0.6878483479496230  
  0.2469322592073220  0.9567277944287050  0.0303518637084502  
  0.2300002861254690  0.9127961195633890  0.5768860219761360  
  0.2457287607967140  0.4732672287262500  0.0475492443246094  
  0.2427724474200590  0.4065344037039430  0.5874760845413780  
  0.8018548613438440  0.9431903327091320  0.0634799821055302  
  0.7397548311492800  0.9511892694563070  0.5783659565118630  
  0.7430229346840890  0.4814598052370670  0.0202067234102129  
  0.7490046946287630  0.4730310016155540  0.5576259258668980  
  0.1615552030061210  0.8845518534359220  0.1461230509659660  
  0.1180316429187880  0.9513879931798770  0.6755901023980930  
  0.1648953408358000  0.3993768787826130  0.1651405700644530  
  0.1592346874350400  0.4084429468924730  0.7198944075236310  
  0.6517582741695140  0.9184657864994010  0.1125670969581170  
  0.6799716110252670  0.8599879905714189  0.6760043759295310  
  0.6593229237389890  0.3892284704783680  0.1223608035616700  
  0.6636630299976320  0.4180923959139830  0.6822900914887460  
  0.1629353162157950  0.0933813054913639  0.1620794904049740  
  0.2434517304109750  0.1082843026196290  0.6260564356915660  
  0.1658994381202830  0.6102201493989839  0.1816524971992520  
  0.1644115348782670  0.5953759054478940  0.6223833204599080  
  0.7122019484034740  0.1217384253322990  0.1269255123615200  
  0.6620436321424770  0.0462028476704030  0.7396955100830690  
  0.6644659361008840  0.5912396204033490  0.1797555255263330  
  0.6634406952326271  0.6296970208271440  0.6659857119972150  
  0.2354182932444170  0.0286340998581129  0.2734739510632410  
  0.2616349465683200  0.0789541398471548  0.7691634807534730  
  0.2408254275749810  0.5456525867371950  0.2922785801580660  
  0.2402406553093180  0.6007161822685180  0.7473074506032260  
  0.6822756595503050  0.0602975762018524  0.2561945253262690  
  0.7517373875461770  0.9891459114766700  0.8302742266212110  
  0.7383488486800170  0.5060545025419430  0.2764686099355190  
  0.7364107453059220  0.5844063511455190  0.7854740787911050  
  0.3147460743349470  0.0962998009019113  0.1657702483097620  
  0.3663827148402070  0.0412209984519557  0.6796279686985950  
  0.3184223574399650  0.6128915811196600  0.1832091676524850  
  0.3171276769169340  0.5984801386210620  0.6217894282947950  
  0.8270583434104760  0.0816772231839999  0.2129945917657360  
  0.8148928012381460  0.0821299874723191  0.7401289194685210  
  0.8162952765095260  0.5909380459198180  0.1809367191085170  
  0.8153523460023659  0.6341474610851950  0.6696189922060150  
  0.2388846147413940  0.0458173750493855  0.1846773664944580  
  0.2756308090466230  0.0483730419485061  0.6873596449276460  
  0.2424665326870880  0.5618715271280700  0.2033167197900730  
  0.2410985740859140  0.5672147289127600  0.6653455573092670  
  0.7417531293750470  0.0582559766065806  0.1873627584211800  
  0.7478216443315480  0.0201947495382764  0.7454089569850660  
  0.7398192023179300  0.5382773164956730  0.1910591682528780  
  0.7394776262429120  0.5852852661112580  0.6957372716514640  
  0.7589869587783570  0.1341663895667890  0.5132297971173320  F F F
