Sn   Cl   C    H    N    Li
   1.00000000000000     
  11.1156835556000004   0.0000000000000000   0.0000000000000000
  -0.0572679011000000  11.4386679467000008   0.0000000000000000
   0.0811114213000000   0.6570856489000000  11.5018020556000007
Sn   Cl   C    H    N    Li
8  24  8  48  8  1  
Direct
  0.4733502541628680  0.4115084210810470  0.9689509929825020  
  0.4805260886441470  0.4254277248037240  0.4625715393564470  
  0.4801308984474010  0.9038660453414580  0.9752473970648540  
  0.4780248902456400  0.9076698423516220  0.4724269535034270  
  0.9806278200449570  0.4055563053741620  0.9683619905241090  
  0.9847746456553380  0.4114381806866060  0.4651660651131400  
  0.9835577452658270  0.9004123141048060  0.9765646688825740  
  0.9872682200551720  0.8967257637423580  0.4728300535299010  
  0.2230068125023000  0.4183841707363700  0.9665487386014440  
  0.2221986557395040  0.3587194137356020  0.4788267298223090  
  0.2350489916156410  0.8756814547821899  0.9844854536448580  
  0.2350890493677680  0.9322269199060240  0.4697999699665730  
  0.7218409457619410  0.3758569734727410  0.9735128343525670  
  0.7235219214657920  0.4691710934380680  0.4480944893222180  
  0.7353743713854149  0.9065868686856340  0.9883649854604120  
  0.7343271211911920  0.8633075516614940  0.4856055764464130  
  0.5522320748434530  0.1786148037048600  0.4739579417723880  
  0.4466266135318840  0.1808712340940780  0.9668964913347170  
  0.4414515607656770  0.6765642578328200  0.4747927889254680  
  0.4955921772131370  0.6820788374398450  0.9536538141563080  
  0.9574481851078720  0.1654766213917970  0.4550959061290460  
  0.0034303494688518  0.1789491879323990  0.9790224679113250  
  0.0240569055448784  0.6610801070480840  0.4720832847210880  
  0.9696208359123690  0.6785173551191040  0.9539906591820630  
  0.9837260200223790  0.3958531512920070  0.2113321693407590  
  0.9673334629974580  0.3878650689147390  0.7072981411308660  
  0.9765016646690130  0.8719515237760390  0.2163518644683660  
  0.9812571610215290  0.8982186144498500  0.7115119293226730  
  0.4694046164880860  0.3918362503291320  0.2017202510636760  
  0.4878487582644780  0.4038459926835720  0.7004045647879140  
  0.4870918766697070  0.8777743951553990  0.2149686586236400  
  0.4781110260125930  0.8992844601645410  0.7087713608118750  
  0.2291608676680290  0.1089879831419080  0.1966239818175610  
  0.2173059336757470  0.1162118606445950  0.7161721197692050  
  0.2324828836209910  0.6251492759070471  0.2002337516543590  
  0.2288819730356480  0.6188587052220340  0.7210944210415490  
  0.7322224532853220  0.1281557035717680  0.1905367333391090  
  0.7464460586427620  0.1052630301256300  0.7654317153610890  
  0.7295465746482480  0.6192466238120340  0.1690871087448820  
  0.7336522814025660  0.6347088742319270  0.7158330539424140  
  0.3091690045439670  0.0674454739642363  0.2340291584974500  
  0.2800632227965100  0.0571704810652343  0.7607195855285420  
  0.3134435694130200  0.5759139670217630  0.2245315377430410  
  0.3110686583225760  0.5810750879799940  0.7566969606577280  
  0.7912575797708440  0.0686383534858968  0.2405816300314940  
  0.8148278131333430  0.0941001546209126  0.8312478801542190  
  0.8092876404952990  0.5649215141418200  0.1834307896476470  
  0.8139191423130860  0.5905090029399600  0.7503884128774280  
  0.2345793469525070  0.1101038348073250  0.1019527463345850  
  0.2237533867343940  0.1146949185646950  0.6223264289917541  
  0.2327968373258040  0.6466009756876731  0.1065729129072690  
  0.2285224325401540  0.6116309347900110  0.6271225344904070  
  0.7695919702235680  0.1368373983528660  0.1026391820269570  
  0.7951742263618750  0.0761090201733524  0.6895001105844590  
  0.7323817246567030  0.6622253178241020  0.0820430020978471  
  0.7381328897446050  0.6419202568681200  0.6208425633905840  
  0.1468749598070200  0.0648483680206787  0.2278001916052160  
  0.1249063936072230  0.0948750827708539  0.7410574329628030  
  0.1516569232515920  0.5745301717823340  0.2250227021320090  
  0.1465150969352370  0.5804139136668700  0.7583082897549420  
  0.6425424792287980  0.0897474130891925  0.1888574594494490  
  0.6614245718477409  0.0586924813907365  0.7687174054317130  
  0.6474546374364329  0.5667258842371400  0.1807048044958840  
  0.6513316403773410  0.5885156944851140  0.7444858273535900  
  0.1508084054150450  0.2749508412063120  0.1982200399357760  
  0.1832462996890350  0.2907783091099730  0.7141610931850200  
  0.1557234508221200  0.7851834320420440  0.2402543920223140  
  0.1543380284325140  0.7849770299993980  0.7121468711377170  
  0.6752134653574320  0.3019470220563030  0.1881747941511710  
  0.6651481242210900  0.2440554398123300  0.7005793195646590  
  0.6542310747361890  0.7649412485788319  0.2455189228137020  
  0.6546423571990940  0.7995373575708860  0.7311572169044630  
  0.2203756726722840  0.2358317655205900  0.3209448973403320  
  0.2386618062983630  0.2429467832410750  0.8432368018792760  
  0.2307597881152770  0.7202929001557590  0.3506580712543140  
  0.2309265918530880  0.7559090369172310  0.8341030880916710  
  0.6835981177730670  0.2442958804244350  0.3181559221627430  
  0.7018026427847780  0.2581880528300670  0.8388343551205260  
  0.7266854140080961  0.6731647047436849  0.3394989726682450  
  0.7262216529561319  0.7521587332921850  0.8505720210341680  
  0.3022367734138850  0.2776289452244560  0.2043845138462310  
  0.3305219360568180  0.2589010169326790  0.7338248188537710  
  0.3079622140500110  0.7864189115730490  0.2407675643751730  
  0.3069925716955730  0.7854079802890250  0.7103688422350140  
  0.8125287769957550  0.2819109448911040  0.2473251385456960  
  0.8091970186130110  0.2799432294511310  0.7412069655250531  
  0.8054355018974509  0.7635010483787380  0.2473490667310810  
  0.8065133053906700  0.8017200910764530  0.7356670477068010  
  0.2255799773071410  0.2321028009193780  0.2314565056549400  
  0.2442321532457580  0.2347085516916660  0.7546932559040180  
  0.2318048213850550  0.7361403529324830  0.2616880272416740  
  0.2307656029252870  0.7446852386727260  0.7454909922696600  
  0.7277878003733340  0.2451789624274490  0.2389401419271630  
  0.7320254814716680  0.2331109493022440  0.7588639652215839  
  0.7288648834224840  0.7109001373274380  0.2559261224491380  
  0.7298957416824920  0.7537706776907460  0.7608592963187910  
  0.7589869587783570  0.1341663895667890  0.5132297971173320  F F F
