Sn   Cl   C    H    N    Li
   1.00000000000000     
  11.1156835556000004   0.0000000000000000   0.0000000000000000
  -0.0572679011000000  11.4386679467000008   0.0000000000000000
   0.0811114213000000   0.6570856489000000  11.5018020556000007
Sn   Cl   C    H    N    Li
8  24  8  48  8  1  
Direct
  0.4738911951242750  0.4637756630282230  0.9745930589664540  
  0.4826208708920500  0.4764519632984860  0.4708225410137200  
  0.4819676019842160  0.9568362923986981  0.9834069358927230  
  0.4776093845058370  0.9569773451779490  0.4800183370635220  
  0.9814706183739810  0.4594916134893030  0.9744148164623260  
  0.9847350316937250  0.4629458906054240  0.4719890135741240  
  0.9848938269945720  0.9533632616030460  0.9846158329524221  
  0.9897339581453060  0.9464058486903320  0.4800009116679050  
  0.2224288796225560  0.4745721769078280  0.9744448409685890  
  0.2224045101192040  0.4092629724222740  0.4840030451066350  
  0.2367048847727140  0.9294524721622830  0.9944896747543650  
  0.2358275898034410  0.9802773757831050  0.4793621152090750  
  0.7209545515877300  0.4283439097224980  0.9775369860743400  
  0.7233711298450460  0.5206631544461130  0.4560513088505830  
  0.7368894785423630  0.9579006819051010  0.9962573482509890  
  0.7351942810016410  0.9145667935987040  0.4937053187751420  
  0.5641387193842450  0.2274587371510650  0.4849537511342680  
  0.4444979596173280  0.2350490126055450  0.9741320795768100  
  0.4443081002728970  0.7250837748882480  0.4798690016978480  
  0.4956195343349100  0.7350179786438910  0.9614419102305960  
  0.9495535049534870  0.2179149810954700  0.4663479948718320  
  0.0071926628549543  0.2322746940067260  0.9855602230358670  
  0.0243150226610360  0.7092626232809029  0.4765462878321350  
  0.9724427811497380  0.7313119028231190  0.9620105328357520  
  0.9829829100515980  0.4474789825752610  0.2179071066704000  
  0.9732328263923260  0.4400722607362650  0.7140523053434310  
  0.9776961676140000  0.9242050484666851  0.2239325762821490  
  0.9835577578959970  0.9480934809600901  0.7188259639396740  
  0.4723622665557700  0.4432137303614490  0.2090233815597710  
  0.4867645656489990  0.4534441938685800  0.7077765942810020  
  0.4889373672970220  0.9298987791659999  0.2222710040222360  
  0.4811550140027960  0.9486886710351849  0.7163317422242550  
  0.2301906393427100  0.1608302405456150  0.2070310063109000  
  0.2224008791870130  0.1694186552133080  0.7210020672345450  
  0.2336027631044970  0.6761176010923680  0.2071798005163370  
  0.2301420536746990  0.6726281486734610  0.7246646497409380  
  0.7339773695302410  0.1833558782597170  0.1955937728121290  
  0.7487996570072400  0.1628567326088360  0.7758871662161690  
  0.7306932168148790  0.6711357419581671  0.1761429459362990  
  0.7348586349065200  0.6844224844762919  0.7238242109877410  
  0.3097909244006940  0.1208075904504910  0.2469977315666170  
  0.2912835667269800  0.1132960421738750  0.7602673587302300  
  0.3143742140195730  0.6266107423687420  0.2315829453285210  
  0.3118700099122380  0.6313574078963130  0.7576081472763520  
  0.8003066079462950  0.1273565629273790  0.2402646899514740  
  0.8040312926209010  0.1575360629577210  0.8531819525166090  
  0.8102732645133260  0.6164755254402590  0.1900434100805290  
  0.8149222530099270  0.6396873036629660  0.7581858999438530  
  0.2359098375642180  0.1566845303301520  0.1127182087364990  
  0.2265190614069650  0.1724391341634380  0.6267177659003320  
  0.2338240014007210  0.6974768518364660  0.1135180490758050  
  0.2292844061885570  0.6711756497179250  0.6301340516997760  
  0.7638676273786110  0.1949351278894910  0.1051862939969840  
  0.8057628419095220  0.1291180459680850  0.7080072618521380  
  0.7337224602675390  0.7151611509524310  0.0895798336926028  
  0.7394031712886220  0.6919460973415890  0.6288339747064700  
  0.1478411304685220  0.1180023761163160  0.2400042238880360  
  0.1331031031894240  0.1391910915937720  0.7481806890251820  
  0.1526327256817400  0.6258256729394790  0.2322077489121770  
  0.1479700508556880  0.6319152596520879  0.7599332134294030  
  0.6457854062883410  0.1414107392486170  0.1996115847213430  
  0.6628706099829220  0.1180184448470700  0.7818346479204910  
  0.6485692116153760  0.6185792339011800  0.1872776985243760  
  0.6524721601039020  0.6381194808461760  0.7521265457151390  
  0.1523666290861780  0.3274016691885640  0.1996511230048730  
  0.1745972580666050  0.3418829540871910  0.7279785491701690  
  0.1574579043266400  0.8365419785091250  0.2469346838308900  
  0.1567738305234120  0.8398116497453491  0.7263586965719530  
  0.6710562235334580  0.3536576491338250  0.2013110473713800  
  0.6747868192744680  0.2943788838698320  0.6848408330430160  
  0.6557008529794141  0.8161536252589759  0.2539166809676400  
  0.6565842327387690  0.8496250377357250  0.7392666505973520  
  0.2211991930707250  0.2947597948581740  0.3245038497186440  
  0.2377641609789370  0.2916122239092020  0.8523024089237770  
  0.2324484288527070  0.7715192650816920  0.3573441607753460  
  0.2331156776313040  0.8023784433450860  0.8463672413359770  
  0.6931487411359690  0.2936770629910550  0.3318385263795950  
  0.6973073560427600  0.3235590632258180  0.8249287537106910  
  0.7278019800956040  0.7230805120279830  0.3470748575656900  
  0.7277903851798780  0.8017563228520540  0.8586312412865760  
  0.3035717123952090  0.3300779444226960  0.2067191755426060  
  0.3247681013546050  0.3197715112075200  0.7401234589269770  
  0.3095639133070730  0.8373705353080630  0.2472180812680840  
  0.3088865460844400  0.8390823988537900  0.7242720398998060  
  0.8124828601052460  0.3380839662221260  0.2515281953258980  
  0.8133192512200040  0.3327974857823280  0.7342140493738750  
  0.8068259938396179  0.8144462291650170  0.2558481314927610  
  0.8083876684561210  0.8513245448068290  0.7439988569793610  
  0.2266827985951190  0.2858392515369220  0.2355297233444700  
  0.2410953322767020  0.2881120638953720  0.7631156748711010  
  0.2333677935100710  0.7872759653551120  0.2683740437499620  
  0.2326464249077440  0.7962606810127349  0.7570688854050840  
  0.7284855430589550  0.2984588755161330  0.2485108650291810  
  0.7340457842733370  0.2887909147100810  0.7517296664828180  
  0.7302012127830100  0.7618927470064470  0.2639228521410800  
  0.7316310610836970  0.8034781172055580  0.7689384214195840  
  0.7589869587783570  0.1341663895667890  0.5132297971173320  F F F
