Sn   Cl   C    H    N    Li
   1.00000000000000     
  11.1156835556000004   0.0000000000000000   0.0000000000000000
  -0.0572679011000000  11.4386679467000008   0.0000000000000000
   0.0811114213000000   0.6570856489000000  11.5018020556000007
Sn   Cl   C    H    N    Li
8  24  8  48  8  1  
Direct
  0.4737157766962460  0.2692044714136500  0.9242509665026760  
  0.4791817468793920  0.2813248432333060  0.4138793647526990  
  0.4784499496518940  0.7590355091817930  0.9250793275961881  
  0.4800536365298990  0.7711563163059750  0.4215916305326360  
  0.9823013831942670  0.2619525314155730  0.9225891685812330  
  0.9945571354044880  0.2753410271367300  0.4145919913672470  
  0.9843645732110790  0.7560308049763740  0.9267062821443940  
  0.9833976528429020  0.7613267193920860  0.4231459949059770  
  0.2257609827849470  0.2634754419801980  0.9145004284682799  
  0.2287962324711990  0.2187425575459980  0.4380960430283350  
  0.2341929474332980  0.7276910534821920  0.9288465430958940  
  0.2385875983061540  0.8001857884950070  0.4134830586043990  
  0.7258719772611960  0.2373322977287700  0.9348446535972480  
  0.7259856407497201  0.3358127700643100  0.3920363712833300  
  0.7350705251038880  0.7677787325735790  0.9391351251674390  
  0.7363210942503180  0.7227903663182440  0.4354987790483870  
  0.5471562459249290  0.0388595641597992  0.4223127362586210  
  0.4500368615562150  0.0356561372939620  0.9215321332232980  
  0.4373242743871290  0.5418129385968120  0.4345692958345040  
  0.5002683211291130  0.5377263319772480  0.9022664969152659  
  0.9514357055728280  0.0285196622193866  0.4026941701061750  
  0.9952813685047850  0.0333277649072205  0.9346306072225540  
  0.0278483860743512  0.5295892358281290  0.4332509940621030  
  0.9653898545065990  0.5348668718341800  0.9030736464301991  
  0.9909911643261980  0.2539485908214690  0.1672556806626640  
  0.9542972251657510  0.2410445678456270  0.6680790766957579  
  0.9774991163543379  0.7289410515342490  0.1677679733415740  
  0.9793998313584080  0.7612512226341830  0.6630496828843180  
  0.4657491890311940  0.2490707001899680  0.1570212936693580  
  0.5029892677528380  0.2573640594944450  0.6531355391567590  
  0.4853010735650420  0.7349829327245080  0.1674097445887040  
  0.4734313175385930  0.7623717459470610  0.6593507871719170  
  0.2318960983703260  0.9675211631331150  0.1396933994283350  
  0.2069451020536750  0.9698700898172570  0.6760559168102900  
  0.2337704669597840  0.4847199032198830  0.1545217958969220  
  0.2305034954599760  0.4739305324044860  0.6849762972980480  
  0.7311917858666150  0.9788357357914040  0.1465576243600990  
  0.7470472539981290  0.9485169463709520  0.6959350206337640  
  0.7293265352681860  0.4776426933267690  0.1216007978383820  
  0.7343772866046330  0.4961463287925160  0.6663736818825410  
  0.3126578100078220  0.9216825264358950  0.1696768063450770  
  0.2487751648072170  0.9052480641429780  0.7350178195677260  
  0.3150800965448230  0.4360696862205660  0.1788429880638870  
  0.3127029298023260  0.4445443536113840  0.7273987114783000  
  0.7703469224655880  0.9150516776469240  0.2092515367873160  
  0.8382160616779341  0.9226423409399740  0.7117976275676600  
  0.8095112902472740  0.4240265114540540  0.1364588958538200  
  0.8149999399572190  0.4529523115933910  0.7013039930806509  
  0.2361085027972020  0.9845177724052300  0.0457149274550436  
  0.2224432315661860  0.9517013371161280  0.5857917679133900  
  0.2341541964704030  0.5066365840538890  0.0608980354590474  
  0.2309139580524960  0.4478122134853890  0.5951712723125240  
  0.7842103930576650  0.9835322423959389  0.0663765037491481  
  0.7492230147843530  0.9620135755500721  0.6022431823876090  
  0.7316046960661310  0.5182625232817830  0.0335968954730516  
  0.7386011692349420  0.5032414680121891  0.5713831407951590  
  0.1503945182213690  0.9183033474790400  0.1641537341718540  
  0.1102390136137310  0.9748482541833540  0.6898873086220900  
  0.1534653968606910  0.4330899326226200  0.1787825452240960  
  0.1480180410931060  0.4426146122982160  0.7279148960824821  
  0.6399824247217130  0.9519137756267410  0.1268619931100810  
  0.6668123557099640  0.8950385983686250  0.7057700910027500  
  0.6477801447907430  0.4245010439262180  0.1347916032948260  
  0.6529745879396880  0.4487997871351040  0.6956862396784090  
  0.1516803462812500  0.1285630807579640  0.1695450065267100  
  0.2190813771214800  0.1443104720707650  0.6461352115099410  
  0.1552817684878780  0.6439724628537560  0.1947918378644530  
  0.1549807004836820  0.6355212186137550  0.6422835251731240  
  0.6927343497169000  0.1575410109320460  0.1368455702806910  
  0.6547868622292020  0.0867957678007622  0.7378594927109610  
  0.6534993329798960  0.6254618738050020  0.1945698219236190  
  0.6537598401093410  0.6608023267991500  0.6799151336542740  
  0.2234272458745130  0.0697930991070702  0.2843085002965340  
  0.2452874400704900  0.1090153355356680  0.7859330960042330  
  0.2303417511526830  0.5792045262957310  0.3053851209766630  
  0.2309425965599570  0.6319431358869920  0.7672380682232640  
  0.6742876246277510  0.0951010748707570  0.2674930155229660  
  0.7304539265522130  0.0454633414467061  0.8482204124066700  
  0.7270967933557180  0.5379638222246670  0.2902381239983960  
  0.7262211373730300  0.6152079481852880  0.7993090773451530  
  0.3033292715189310  0.1315935891299250  0.1743380109511560  
  0.3501769314927330  0.0848440771939719  0.6912708695460970  
  0.3076605199171120  0.6462468091929170  0.1960454273493230  
  0.3072190759918120  0.6367400301561540  0.6413096613262140  
  0.8152275717970330  0.1226644671535180  0.2145129228936650  
  0.8063678883111181  0.1185168570731660  0.7499878102263020  
  0.8050428588073640  0.6249343883715720  0.1956771719141730  
  0.8055016265029380  0.6646482161777730  0.6837603951844150  
  0.2273211943515240  0.0819923211335147  0.1949551753245240  
  0.2594242544740200  0.0839367334382052  0.7021434060527800  
  0.2316883180503870  0.5954029805882750  0.2164394418156100  
  0.2311849718376400  0.6032120266080090  0.6833039458672370  
  0.7291874394969140  0.0956287053867820  0.1950907251854850  
  0.7372273770006960  0.0589253751757306  0.7594619289953420  
  0.7286417746117601  0.5721314743723450  0.2054601864017270  
  0.7295169976632960  0.6158366135976570  0.7095789607126580  
  0.7589869587783570  0.1341663895667890  0.5132297971173320  F F F
