 SYSTEM = dos
 ISTART = 0 
 ICHARG = 11  # 1
 PREC   = Accurate#Normal
 ISYM   = 0
 IVDW   = 11
 NELECT = 402

 ENCUT  = 500
 NELM   = 300
#NELMIN = 5
 EDIFF  = 1.0E-06 #-04
 ALGO   = Fast
 ISMEAR = 0 #-5
 SIGMA  = 0.10
#AMIX   = 0.4
 NBANDS = 216
 NDOS   = 3000

 EDIFFG = -0.01 # -0.05
 NSW    = 0
 IBRION = -1 # 2
 ISIF   = 2
 POTIM  = 0.02

#ISPIN  = 1
#MAGMOM = 4*1.1
 LORBIT = 11 ##

#NGXF   = 128
#NGYF   = 128
#NGZF   = 128

 LREAL  = Auto
 LCHARG = .TRUE.
 LAECHG = .TRUE.
 LWAVE  = .FALSE.

#LCLIMB = .TRUE.
#ICHAIN = 0
#IMAGES = 8
#IBRION = 3
#POTIM  = 0
#IOPT   = 7
#SPRING = -5
