 SYSTEM =402 Li-MASnCl3_NEB 2*2*2
 ISTART = 0 
 ICHARG = 2
 PREC   = Normal#Accurate
 ISYM   = 0
 IVDW   = 11
 NELECT = 402

 ENCUT  = 500
 NELM   = 100
#NELMIN = 5
 EDIFF  = 1.0E-06#1.0E-06
 ALGO   = Fast
 ISMEAR = 0
 SIGMA  = 0.10
#AMIX   = 0.4
 NBANDS = 208

 EDIFFG = -0.03 # -0.01
 NSW    = 500
#IBRION = 2
 ISIF   = 2
#POTIM  = 0.02

#ISPIN  = 1
#MAGMOM = 4*1.1
#LORBIT = 1

 LREAL  = Auto
 LCHARG = .TURE.
 LWAVE  = .FALSE.

 LCLIMB = .TRUE.
 ICHAIN = 0
 IMAGES = 15
 IBRION = 3
 POTIM  = 0
 IOPT   = 1
 SPRING = -5
