Sn   Cl   C    H    N    Li
   1.00000000000000     
  11.1156835556000004   0.0000000000000000   0.0000000000000000
  -0.0572679011000000  11.4386679467000008   0.0000000000000000
   0.0811114213000000   0.6570856489000000  11.5018020556000007
Sn   Cl   C    H    N    Li
8  24  8  48  8  1  
Direct
  0.4840697981182160  0.4864511415461615  0.9868946648945870  
  0.4921924814887119  0.5010743458068733  0.4898926437226973  
  0.4918005475963456  0.9837182747095796  0.0035440937851534  
  0.4880091842881232  0.9777084393997438  0.5002537998543355  
  0.9879860486252416  0.4848166739776233  0.9899305922815612  
  0.9920838568114826  0.4831606886843528  0.4884743039105834  
  0.9930251254349304  0.9800055882541908  0.0042742139785632  
  0.0025837153403154  0.9627567811716088  0.4999261021140465  
  0.2279301311465088  0.5096815606670985  0.9941820604066652  
  0.2264258803762689  0.4301476386277923  0.4929587384384648  
  0.2459940508264344  0.9586242789773988  0.0206704404218160  
  0.2435107752697956  0.9958621456173080  0.5059194904488060  
  0.7253451835562980  0.4476192569441124  0.9869137272326431  
  0.7272350540239131  0.5469912893505691  0.4749479667999182  
  0.7457225124060544  0.9794221673267188  0.0150153873715305  
  0.7419375544776552  0.9361875634828150  0.5145237105573834  
  0.5903241432335671  0.2435615482293548  0.5097031168303632  
  0.4459088389210232  0.2612764354835276  0.9901330310074812  
  0.4570244398620022  0.7404745205893746  0.4904119853534960  
  0.5002340406466215  0.7595298519804400  0.9818400931404720  
  0.9399282460685326  0.2212478138889058  0.4915936308156428  
  0.0244707899840796  0.2593540330403867  0.0009251469661803  
  0.0312470092439599  0.7217817036713498  0.4865386837962537  
  0.9851481648812108  0.7558020135570774  0.9824446262171682  
  0.9858020233055480  0.4702370978684347  0.2320989160884711  
  0.9912573631116532  0.4642011544922562  0.7305797417634978  
  0.9855474383243208  0.9494739213881244  0.2424251982443456  
  0.9935674738820892  0.9653845984695920  0.7376709232783544  
  0.4855988037740155  0.4664035939704337  0.2234493189197334  
  0.4854337362426409  0.4748258252023073  0.7233179217098038  
  0.4988356104023889  0.9547337511049312  0.2399440646577343  
  0.4918067951361673  0.9697851436319668  0.7348346185823931  
  0.2371837969647904  0.1866927124643168  0.2340897619851628  
  0.2398543964999058  0.2008494008099635  0.7319485442791043  
  0.2411805699340370  0.6976918415632259  0.2231972932331908  
  0.2389615912533806  0.7003222074413423  0.7315969567088193  
  0.7448674614544719  0.2109619152571468  0.2148663133528305  
  0.7587404877968856  0.2037630708403559  0.7921933605938973  
  0.7391200016397981  0.6952190830839805  0.1922603717656123  
  0.7430728510122936  0.7005662067607806  0.7437872399202322  
  0.3157012985034084  0.1511439982370592  0.2803872989325916  
  0.3226951268539732  0.1551124525731608  0.7573029628427714  
  0.3216291579653344  0.6475500599355372  0.2473967277991726  
  0.3194159488386700  0.6508670640966739  0.7570213830706424  
  0.8213320941550617  0.1638246358944874  0.2541728537938885  
  0.7972597868137119  0.2107792251830977  0.8786048297477279  
  0.8182743407163776  0.6397001179835412  0.2049772208412385  
  0.8220327745288990  0.6537689360372106  0.7778837640949733  
  0.2429747848618461  0.1680582007234512  0.1422580677958959  
  0.2354514501720018  0.2139393048167861  0.6373222705202169  
  0.2411233355705798  0.7187065532145660  0.1295245131186024  
  0.2374085693373343  0.7169127010966277  0.6372665872442763  
  0.7597854420932538  0.2245302988105079  0.1211821019246488  
  0.8220946889681321  0.1567969927359862  0.7385093732044336  
  0.7426660143216866  0.7415552696573527  0.1067915129918811  
  0.7479832574917581  0.7096929418661354  0.6489026576424246  
  0.1546550012857130  0.1486826234370470  0.2727426089110047  
  0.1612196324276952  0.1508762430920184  0.7645799658382409  
  0.1598599805457352  0.6482334663345662  0.2488673261266858  
  0.1579060928609092  0.6523858235285416  0.7607928508978677  
  0.6611486849269929  0.1618298347809624  0.2318048365965565  
  0.6718278642741533  0.1583878916222280  0.7987722304476438  
  0.6567148353256967  0.6428088096112539  0.2015464216174098  
  0.6605684021082173  0.6539043881918327  0.7710501147549951  
  0.1613600565523088  0.3530595113271176  0.2013444204148823  
  0.1619709918619497  0.3639616460324570  0.7611763679228761  
  0.1666286310817507  0.8588423012993430  0.2628377262416174  
  0.1661304831392023  0.8644833487656164  0.7653604102966581  
  0.6656490834051878  0.3763982460778696  0.2277652700297090  
  0.6937624950804534  0.3217891269186073  0.6611803638367962  
  0.6646620563746362  0.8383174089732052  0.2736961176998361  
  0.6666490910914450  0.8665832800342532  0.7607238845837097  
  0.2291062330655301  0.3395087363781931  0.3296213799151415  
  0.2435232247463007  0.3095893170840364  0.8727895452366160  
  0.2418047774451809  0.7935765704933250  0.3729857322244892  
  0.2427605799529319  0.8051703377812939  0.8767164863672583  
  0.7145264521095486  0.3190028680604916  0.3536082624350509  
  0.6922854771513183  0.3738643622138946  0.7946254213659147  
  0.7357956998960328  0.7422380514930287  0.3647413276993873  
  0.7367508427583385  0.8166328096734071  0.8798238319605858  
  0.3119630410580957  0.3557934562554670  0.2090653479765769  
  0.3134589200835367  0.3676914911635966  0.7549721705175187  
  0.3184766462176005  0.8588171931264735  0.2621707174357721  
  0.3178823824404554  0.8634160595959083  0.7624551849210021  
  0.8149125854172200  0.3752895860197972  0.2546888969381069  
  0.8229173870141081  0.3668575458167530  0.7240890462160043  
  0.8156167929372281  0.8358150183126645  0.2761247935805914  
  0.8183023102316966  0.8666801902271210  0.7660974280855541  
  0.2347352942321039  0.3157436471433945  0.2436200437159214  
  0.2395253278367322  0.3174436603540760  0.7831902294841239  
  0.2422456977379681  0.8091245467168868  0.2840002672799437  
  0.2417028865605077  0.8147118140291376  0.7870485598893070  
  0.7350913498336696  0.3274930476899294  0.2656376999657786  
  0.7406362053054675  0.3239142828077510  0.7387566906872991  
  0.7388006668791273  0.7834992048252534  0.2825417445644416  
  0.7410776944152033  0.8192460509486931  0.7901975632094337  
  0.7589869587783571  0.1341663895667890  0.5132297971173322  
