Sn   Cl   C    H    N    Li
   1.00000000000000     
  11.1156835556000004   0.0000000000000000   0.0000000000000000
  -0.0572679011000000  11.4386679467000008   0.0000000000000000
   0.0811114213000000   0.6570856489000000  11.5018020556000007
Sn   Cl   C    H    N    Li
8  24  8  48  8  1  
Direct
  0.4958060036849125  0.4808616668401482  0.9945511257499496  
  0.4850709795050588  0.5024090399730503  0.4822353001616385  
  0.4850717809440253  0.9728073581198594  0.9902545106169920  
  0.4874570226191517  0.0038710184623981  0.4900032175239108  
  0.9918789376029536  0.4727260293488916  0.0022436266162307  
  0.9974368685768108  0.4916668795728088  0.4933891295458186  
  0.9926411590630538  0.9702185170149616  0.9924879294535898  
  0.9866494190798546  0.9950437690899598  0.4927505864788252  
  0.2488106077124075  0.4580608697869692  0.9713772136524284  
  0.2463585816562117  0.4441504605075290  0.5255719824723383  
  0.2421758926648893  0.9365979277401943  0.9832075216625992  
  0.2485630799577513  0.0496558135215895  0.4748923704547784  
  0.7454943482885803  0.4556099594733734  0.0357118347454300  
  0.7459698569249457  0.5454057763811839  0.4672755071030539  
  0.7429939315460694  0.9910558714214988  0.0067191924939476  
  0.7475551826561759  0.9476726598967310  0.4995726191056954  
  0.5292714160021126  0.2791749665654608  0.4805892949641146  
  0.4943172628030973  0.2492592924302096  0.9812572123021523  
  0.4359172646744093  0.7797630331099007  0.5185242813041899  
  0.5174300273564877  0.7510650364652497  0.9662543633466896  
  0.9522745298696684  0.2700608947382039  0.4787345693973621  
  0.9912703810499890  0.2467730164675117  0.0100940336664053  
  0.0453205692225886  0.7723784035313821  0.5198536659048734  
  0.9633259962559776  0.7503508220963165  0.9665570075770876  
  0.0160921956200304  0.4745428236804736  0.2426696947807742  
  0.9234517427636040  0.4565962556261376  0.7382726319219870  
  0.9864052702547096  0.9465119337985392  0.2357883693771049  
  0.9827229833595956  0.9951513451166056  0.7311685370614693  
  0.4670274852057413  0.4688370710914678  0.2334330339325576  
  0.5404682395681322  0.4735150104151524  0.7276114931089988  
  0.4918751184151073  0.9531294090683444  0.2372613197938974  
  0.4803092057486414  0.0032148774308690  0.7330510787575198  
  0.2441691703363762  0.1971887279703002  0.1953713810023796  
  0.2013042139573605  0.1991230270233152  0.7578287533854658  
  0.2448850411882003  0.7099993814383618  0.2272022712592376  
  0.2423429427689703  0.6908885415619795  0.7742699088541541  
  0.7370534660326276  0.1879831890230397  0.2335224310457095  
  0.7346777332900634  0.2032820781756071  0.7222446108647481  
  0.7390790426367727  0.6954620173100571  0.1959727533299268  
  0.7423492738008618  0.7303263177961873  0.7328284968356418  
  0.3257596239141198  0.1451101410925905  0.2086002756046662  
  0.2033952117994132  0.1441298911670572  0.8386169336389290  
  0.3268640122064951  0.6624294403776420  0.2515831415210770  
  0.3222526904097690  0.6803608273970142  0.8285454054602317  
  0.7359751029297465  0.1200025396759298  0.3043973406955511  
  0.8243466149821973  0.1935104563764487  0.6847081609275497  
  0.8198093752119437  0.6435195332783651  0.2141349866153242  
  0.8240956047946336  0.6896353092095912  0.7686440383621650  
  0.2450054672894617  0.2420757811199324  0.1090307440137139  
  0.2177504655351962  0.1463731075379343  0.6831115935906942  
  0.2459636931523094  0.7327980303154836  0.1336396613031439  
  0.2466659110596811  0.6330838806545481  0.7018322413243094  
  0.8163424877676752  0.1785496986648770  0.1781514076748434  
  0.6845809174288789  0.2717337497668468  0.6735022127111113  
  0.7403104826052317  0.7301502571636569  0.1056933447450489  
  0.7460744123358662  0.7360963220430500  0.6376661369214679  
  0.1643136521105782  0.1412016429445881  0.2061230589390165  
  0.1142207171365164  0.2428515826135720  0.7492169076318370  
  0.1656004227278482  0.6562815051736205  0.2501417985780362  
  0.1612681912508501  0.6729356765595074  0.8266827077012756  
  0.6553114713789742  0.1826073480754894  0.1817333329061885  
  0.6832017649559380  0.1217688190344453  0.7200850412782429  
  0.6585518875467616  0.6417308323430434  0.2130820881209772  
  0.6621382864430260  0.6817790212181162  0.7640996965893179  
  0.1639052634700391  0.3392457759791300  0.2752040915105716  
  0.2980017991315491  0.3427213659993221  0.6847413415922994  
  0.1626985633370608  0.8675546872507386  0.2681342197261331  
  0.1628997498297552  0.8272682105313323  0.6742965611505338  
  0.7440123233106456  0.3705731698200382  0.2180755535417409  
  0.6630984930375325  0.2544007857226832  0.8820280936451173  
  0.6616595346653987  0.8475825208233515  0.2596370890803568  
  0.6578693020255614  0.8933724134108779  0.7436259377183720  
  0.2399774890841552  0.2474202034212797  0.3671614024715418  
  0.2828675702160064  0.3443346962680399  0.8303141139062052  
  0.2374345243994312  0.8032907920176732  0.3790002775269141  
  0.2352755489310885  0.8714104877990767  0.7932473834913260  
  0.6676875729334826  0.3163726577909687  0.3374008965115802  
  0.7795643828495747  0.1657598952890733  0.8972617528635850  
  0.7369802557821257  0.7670964192325572  0.3599995658503275  
  0.7325754982287060  0.8508627808290287  0.8632361218906146  
  0.3144649534689200  0.3429301210116162  0.2758418820688886  
  0.3812277712134796  0.2537561532814056  0.7733296564386030  
  0.3156243887653588  0.8719186035035249  0.2710604752724416  
  0.3129944581194005  0.8337418262810937  0.6748528769107183  
  0.8179491290174887  0.3118863171845521  0.3354933347551029  
  0.8032947324601987  0.3054516621490517  0.8520383710130172  
  0.8132928943307525  0.8486024276831216  0.2599665062184628  
  0.8098483062576923  0.9005096253291823  0.7460718236654301  
  0.2401747231433559  0.2870202267677060  0.2842172181752485  
  0.2973526144290790  0.2900978467618803  0.7615235194083194  
  0.2398520149948676  0.8200381972057434  0.2900694064945560  
  0.2379293924583933  0.8145205150988470  0.7264315307490029  
  0.7420182887264958  0.3048391207792494  0.2841517092352616  
  0.7461127087101705  0.2347428957948078  0.8451355790547721  
  0.7374140142221267  0.7954434222927421  0.2734430551153046  
  0.7348812897519851  0.8506850500858308  0.7734326045037946  
  0.7363425900610546  0.4960788447193371  0.6644649199774822  
