Sn   Cl   C    H    N    Li
   1.00000000000000     
  11.1156835556000004   0.0000000000000000   0.0000000000000000
  -0.0572679011000000  11.4386679467000008   0.0000000000000000
   0.0811114213000000   0.6570856489000000  11.5018020556000007
Sn   Cl   C    H    N    Li
8  24  8  48  8  1  
Direct
  0.4783957926369020  0.4442731269974580  0.9743522268393580  
  0.4850143024635920  0.4590707665558890  0.4700876110914110  
  0.4848370149718640  0.9382079525650060  0.9831721479345540  
  0.4815073495807050  0.9390974001188670  0.4802423110727000  
  0.9841312131189520  0.4395665279129200  0.9748347812835840  
  0.9883162460519620  0.4434839522541750  0.4719539696762580  
  0.9876814186758820  0.9346822504540000  0.9843413307290710  
  0.9929376733634380  0.9275967306530220  0.4805853573212720  
  0.2262801395186290  0.4555902633714250  0.9743501212987000  
  0.2248838990069400  0.3910834379659060  0.4833808463177210  
  0.2395642441222820  0.9108255549479900  0.9943793569226910  
  0.2386687033011010  0.9625424683278080  0.4798481289715060  
  0.7245335172104500  0.4077990838495860  0.9784486440884280  
  0.7263344430877950  0.5034111381565110  0.4555985104472000  
  0.7397351229619630  0.9391420966994060  0.9958725427660320  
  0.7379921150048980  0.8960353158914890  0.4936948093875730  
  0.5628477868607180  0.2102716607026610  0.4836213806593360  
  0.4491514129759300  0.2154265495328090  0.9734147336104740  
  0.4471519733972670  0.7070919229087990  0.4794855785599800  
  0.4985705830318280  0.7156411874528820  0.9617000316103450  
  0.9529226656730360  0.1953836791954140  0.4667716726387290  
  0.0105471213900711  0.2134250824889910  0.9853195681919390  
  0.0275358991635346  0.6906232702436780  0.4764998437902730  
  0.9752830055477740  0.7121189515731360  0.9620699407106220  
  0.9860111765588990  0.4288278514769090  0.2173619950332090  
  0.9757506844524531  0.4217894226196220  0.7143878396756550  
  0.9805362075747890  0.9057486174506550  0.2237067378298250  
  0.9861029386714660  0.9294753444634680  0.7189563019190270  
  0.4753740349378770  0.4248672521323410  0.2080824249300660  
  0.4892036429485060  0.4358838752489220  0.7072543101676390  
  0.4918077171761480  0.9114344895494720  0.2220517594874900  
  0.4833843941776870  0.9311498540734970  0.7165608029759150  
  0.2328970797487050  0.1425601362805360  0.2069738407362940  
  0.2250236484325400  0.1517038202379760  0.7206058144458330  
  0.2364378329440880  0.6577045304602510  0.2067876232491790  
  0.2331811054767050  0.6531387475802301  0.7243698532892050  
  0.7371580613005850  0.1636966743669520  0.1979028440471280  
  0.7506653070227350  0.1451660953811610  0.7729340206866780  
  0.7337621136112350  0.6525824516379020  0.1757436441128840  
  0.7378293410788660  0.6658590167253980  0.7237571577367540  
  0.3126503511410620  0.1025996686481410  0.2466470958774340  
  0.2938164932107510  0.0957519289295524  0.7602694127075560  
  0.3172878979623580  0.6082582375952710  0.2310368619807760  
  0.3151737204726300  0.6124894481643860  0.7574204751983450  
  0.8018417755246640  0.1071692994267950  0.2443742562284050  
  0.8103722615787250  0.1402077416969430  0.8469735102087070  
  0.8133558592991380  0.5979618215830460  0.1897174578610510  
  0.8178175316457870  0.6211211566738690  0.7582996788919650  
  0.2384803641017580  0.1386021182586030  0.1126314385769140  
  0.2282842363516620  0.1544828086168880  0.6263041733209660  
  0.2366705007653960  0.6790297261746410  0.1131221391441400  
  0.2325406547152540  0.6523142489100640  0.6298119908438150  
  0.7687516644737050  0.1737787824895340  0.1079771545701020  
  0.8062392252212880  0.1119761344291630  0.7034378038382531  
  0.7367568289419520  0.6963372634039260  0.0890500630486453  
  0.7424028457897520  0.6736350662478650  0.6287865725016810  
  0.1504180286362020  0.1001256994886060  0.2401358340195370  
  0.1355627353046820  0.1222505843751890  0.7481962853086850  
  0.1554806057458160  0.6073816466724060  0.2317947978321750  
  0.1509912854217090  0.6123393433383610  0.7595433109980960  
  0.6487024424306430  0.1221416540840900  0.2009330285362730  
  0.6654005515998670  0.0989195546792312  0.7770539571520489  
  0.6515982194460850  0.6000796051076590  0.1867813906144540  
  0.6554033304733490  0.6196574419409460  0.7521181455954640  
  0.1552047652103000  0.3091635083140510  0.1995631903671450  
  0.1784474727488300  0.3240338930328770  0.7273097798192060  
  0.1602025864459390  0.8180084784598660  0.2467339281892420  
  0.1588561955282710  0.8194701170814880  0.7266163634503700  
  0.6743037350025740  0.3350812206595090  0.2002238190173600  
  0.6744884322640490  0.2784371410249930  0.6862185457562080  
  0.6586244908435051  0.7977106874586070  0.2533414059038300  
  0.6593974931965479  0.8308525666485500  0.7395251040457380  
  0.2243583704503820  0.2766151515206920  0.3241076492206920  
  0.2418614239137170  0.2737568311625970  0.8521700370687590  
  0.2352821056775900  0.7530596745399341  0.3570463541869600  
  0.2356104707148720  0.7823092182826110  0.8464678432211410  
  0.6944080617384371  0.2774024211760170  0.3303594418854230  
  0.6991681003689680  0.3045130920070990  0.8252551503951440  
  0.7307648819130720  0.7049717240080520  0.3466529517929970  
  0.7306367903746820  0.7827902127353480  0.8589063578319920  
  0.3066075923686860  0.3117858714656530  0.2060872697173680  
  0.3281935110625880  0.3015582274812430  0.7396374535913830  
  0.3123610379381040  0.8189452475250070  0.2469466964996940  
  0.3115744483122910  0.8196171970198191  0.7245746285765921  
  0.8157023306350670  0.3196995641384340  0.2514916280437670  
  0.8149246552437760  0.3166586812623870  0.7347507044161580  
  0.8097847064664651  0.7960084560710410  0.2553382775352140  
  0.8112557321165770  0.8325227916802770  0.7442565362133080  
  0.2297237211011560  0.2677199428655310  0.2351241533118730  
  0.2445483342015780  0.2701773137036030  0.7629834556530311  
  0.2361822696908570  0.7688090407578340  0.2680716698274020  
  0.2352758652381900  0.7767579500153650  0.7571106060524390  
  0.7317072306767940  0.2801393181543040  0.2477760452386830  
  0.7358787675516640  0.2718828566751780  0.7510334833939630  
  0.7331435245880840  0.7434890906212280  0.2633668597263370  
  0.7344664928174180  0.7847624350521550  0.7692143476370410  
  0.7589869587783570  0.1341663895667890  0.5132297971173320  F F F
