Sn   Cl   C    H    N    Li
   1.00000000000000     
  11.1156835556000004   0.0000000000000000   0.0000000000000000
  -0.0572679011000000  11.4386679467000008   0.0000000000000000
   0.0811114213000000   0.6570856489000000  11.5018020556000007
Sn   Cl   C    H    N    Li
8  24  8  48  8  1  
Direct
  0.5145591777194580  0.1412826000687190  0.8540130028193790  
  0.5051125250579910  0.1621367853483950  0.3420219095798270  
  0.5054695871995000  0.6333042853530140  0.8508612416175950  
  0.5072680569070110  0.6612401585017420  0.3502458491623350  
  0.0115387998005034  0.1333101115702260  0.8608362245507830  
  0.0175754546649316  0.1508077418218490  0.3522209973176040  
  0.0125779370817374  0.6306197716496150  0.8529916330411210  
  0.0076482615689405  0.6523062280218500  0.3528471781873510  
  0.2668397327652050  0.1217972541214470  0.8333965864728180  
  0.2643629472871270  0.1030763483578210  0.3820878818864520  
  0.2623241038479700  0.5979882314944810  0.8456176521835080  
  0.2679918585003540  0.7047798693153240  0.3364372292488870  
  0.7638503015984610  0.1147394869237810  0.8911865520998210  
  0.7645603139601900  0.2063022871151510  0.3248967847595650  
  0.7630929822518610  0.6498206058064030  0.8669502765572860  
  0.7670350099730450  0.6065188565096500  0.3603086986227080  
  0.5532581348616080  0.9358439004803460  0.3419623926212460  
  0.5095417408502060  0.9097197308216280  0.8424799515665210  
  0.4574903877426830  0.4365053308444030  0.3758698895913140  
  0.5360163142934260  0.4114842770207540  0.8272223855313660  
  0.9720025932050170  0.9259283194093400  0.3390371828876220  
  0.0135431016363925  0.9073782551501580  0.8689037165534870  
  0.0638603308422916  0.4281028097532510  0.3767996255059330  
  0.9849848163465560  0.4104989314986800  0.8274939451643510  
  0.0334083806875546  0.1340016222097120  0.1014089670565770  
  0.9508489758117780  0.1170195080185190  0.5979802758683770  
  0.0062649850314507  0.6064131281744740  0.0958923132048659  
  0.0034864313752332  0.6525440813106090  0.5912973601434600  
  0.4883781558243360  0.1284104919439420  0.0920887193368458  
  0.5547949975690120  0.1336481801453950  0.5873226954580700  
  0.5122821240264180  0.6129392104683909  0.0970461590726899  
  0.5006760160635561  0.6597744173060480  0.5927461062389900  
  0.2634849759645470  0.8550175403484910  0.0573409189458746  
  0.2232436447634120  0.8576275185073260  0.6155711999472890  
  0.2644463097726560  0.3687316598382210  0.0864663102195643  
  0.2617688662499730  0.3504054493344400  0.6314702767814160  
  0.7576151853837320  0.8495226455140340  0.0915794046831086  
  0.7570338327481810  0.8584168223027270  0.5835083348581560  
  0.7589776442453841  0.3551548824424130  0.0551640716186748  
  0.7623502763797030  0.3878890816699970  0.5932999169171910  
  0.3452207779809680  0.8041083796512070  0.0733514068793953  
  0.2314297314989650  0.8010734976203930  0.6945707431061739  
  0.3463184903555440  0.3209870465342230  0.1108085062482180  
  0.3424494378458930  0.3371617775555310  0.6837691992190620  
  0.7626054822099541  0.7811784490007520  0.1616375800286960  
  0.8486774260228520  0.8491160473155100  0.5528421085081520  
  0.8396410033953320  0.3029663530515110  0.0728646232858437  
  0.8439480650143349  0.3468427034171100  0.6290675512098870  
  0.2648109319794940  0.8960292633208390  0.9694409414364580  
  0.2394640147678830  0.8093883171834590  0.5379599928353570  
  0.2654479727818600  0.3913606615237540  0.9928961690223570  
  0.2655161481169290  0.2975145310179180  0.5552967056628521  
  0.8336405937102400  0.8418071468828650  0.0320379738501798  
  0.7109741908880300  0.9249747207984300  0.5307167885180341  
  0.7603799297245060  0.3907520330424030  0.9652199310407240  
  0.7661609099453350  0.3940516001177890  0.4981305311495820  
  0.1830604564418500  0.8004036750755800  0.0705447533970981  
  0.1337812644678560  0.8964865005848101  0.6103314322622770  
  0.1849852084001060  0.3153592290556140  0.1096092882064030  
  0.1802031502931860  0.3303406403771820  0.6821360837373950  
  0.6737535837214860  0.8405557903808250  0.0440043147350878  
  0.7016981115389460  0.7800224671175160  0.5843769372998719  
  0.6782455021499700  0.3015515158511080  0.0716189084476982  
  0.6819183126967200  0.3395581663038030  0.6243318501249990  
  0.1830542110311810  0.0007494293620938  0.1293063238160970  
  0.3079862808729890  0.0063798673332067  0.5481937068914280  
  0.1828545343794040  0.5265579018980590  0.1273065231895830  
  0.1823317396661270  0.4908944923949800  0.5399965103468380  
  0.7577543797194600  0.0317996194976441  0.0765687247454353  
  0.6816442077716330  0.9219463161531890  0.7319386445329250  
  0.6817599943708870  0.5066311553385280  0.1202633082277750  
  0.6784627081240170  0.5510810133174820  0.6045765598213350  
  0.2587065209110010  0.9138972361434600  0.2253205896327960  
  0.2986200903834140  0.0027806391876991  0.6946151537852950  
  0.2576278002525250  0.4622323070853950  0.2381090414911590  
  0.2556750379703990  0.5280492085756290  0.6605642431598990  
  0.6898479591786379  0.9759710487985060  0.1986300285230040  
  0.7960119032288210  0.8361148782443590  0.7577532621932410  
  0.7567917770596950  0.4250145885982180  0.2199325957644110  
  0.7528259280357290  0.5079938449317239  0.7241757600247900  
  0.3342631881365620  0.0042836453277713  0.1304362663057540  
  0.3987004202639170  0.9206853237517790  0.6315965432885950  
  0.3357081215051090  0.5305868558773370  0.1299596355153240  
  0.3335776187628990  0.4968540038151360  0.5403819939276200  
  0.8395082644264680  0.9761949417496920  0.1890513261358370  
  0.8258513271055971  0.9717703182618030  0.7058821904229930  
  0.8333988824095570  0.5073857888589790  0.1207670466244320  
  0.8304367495286360  0.5576745757989990  0.6072535162029320  
  0.2594963831133600  0.9496001691182920  0.1409864623838890  
  0.3129308948700100  0.9524593919240329  0.6231564014603890  
  0.2598942514330440  0.4788784229754790  0.1491765689576800  
  0.2580624282658690  0.4754132594439400  0.5901907892186330  
  0.7613536377374870  0.9658441702316251  0.1419360235066360  
  0.7664627098829400  0.9030076711915580  0.7018048226225110  
  0.7574155854384240  0.4543112137149510  0.1336467579363420  
  0.7552836377510290  0.5080605597779120  0.6343834454392430  
  0.7589869587783570  0.1341663895667890  0.5132297971173320  F F F
