Sn   Cl   C    H    N    Li
   1.00000000000000     
  11.1156835556000004   0.0000000000000000   0.0000000000000000
  -0.0572679011000000  11.4386679467000008   0.0000000000000000
   0.0811114213000000   0.6570856489000000  11.5018020556000007
Sn   Cl   C    H    N    Li
8  24  8  48  8  1  
Direct
  0.4840437897177150  0.4689882405386950  0.9802686554224110  
  0.4908973846299410  0.4841269135817680  0.4813145012468750  
  0.4906476051138610  0.9655718499813870  0.9947443576890400  
  0.4870433131191720  0.9619952814587910  0.4916145430196990  
  0.9877368654831530  0.4666138665609330  0.9830323711874031  
  0.9920905681736930  0.4667646482008680  0.4809684173632470  
  0.9923803508105830  0.9619310454398490  0.9956063862536870  
  0.0006326183353800  0.9479991412387760  0.4915634855104090  
  0.2287505221236870  0.4885390372985400  0.9851950317588860  
  0.2271386213031100  0.4141430999523890  0.4877599590002860  
  0.2450343677670450  0.9396842301195140  0.0099421257754951  
  0.2430843462996890  0.9821525971490240  0.4954995705522640  
  0.7262649969250899  0.4310353378455170  0.9826055270626100  
  0.7280794772777029  0.5298287346330151  0.4664559454781010  
  0.7448830105785980  0.9630049183921590  0.0066139871720665  
  0.7417644414091190  0.9198169414607040  0.5055973584383210  
  0.5822584471894160  0.2296886619304070  0.4989529855139210  
  0.4487705781931140  0.2430111732965140  0.9822474132598000  
  0.4548836359815700  0.7263237319916850  0.4847262592619660  
  0.5009101723839700  0.7416943859827620  0.9730598229804860  
  0.9432947572959830  0.2088334936040570  0.4821411963543960  
  0.0211372741086113  0.2410647222105700  0.9937525123403560  
  0.0313581659432477  0.7083741891346500  0.4812281203153740  
  0.9829443975616010  0.7381460276302880  0.9735801864849550  
  0.9872226783467870  0.4533725837941130  0.2251463063697390  
  0.9868134642982730  0.4469389027485720  0.7234624578469330  
  0.9850100258811370  0.9319403361089940  0.2341547377515680  
  0.9921562829965610  0.9504044187234680  0.7294276940575980  
  0.4834649749035540  0.4494986575050290  0.2163463101728520  
  0.4884120462561010  0.4582133471344200  0.7159339777861000  
  0.4976622569147160  0.9373270238467100  0.2319626291315020  
  0.4901275273245630  0.9543453416196700  0.7269464564391070  
  0.2369569348447420  0.1690348537492590  0.2233326932010930  
  0.2362861254563330  0.1819621590381930  0.7256509752164080  
  0.2407927642604290  0.6813681743016500  0.2157043387822200  
  0.2383367127991230  0.6811274955457770  0.7270055045758500  
  0.7435362661624930  0.1922389295851550  0.2080490819159380  
  0.7558221412389760  0.1818122740969450  0.7827344811814300  
  0.7385030627413910  0.6779740370421730  0.1847325617638400  
  0.7424664802891420  0.6858670059294401  0.7351683368968590  
  0.3160791390442460  0.1322474877834750  0.2673163094835080  
  0.3151772912625490  0.1332199423636950  0.7560595768752200  
  0.3213757150772330  0.6314560670665960  0.2399076186301310  
  0.3195348574834450  0.6348049741979420  0.7549331413839310  
  0.8161938463836470  0.1419786737643720  0.2501594030653170  
  0.8018684386509880  0.1875877920431870  0.8654637042360710  
  0.8178071979475821  0.6227561462158230  0.1978709451909040  
  0.8217322517968439  0.6397139740992700  0.7694733288505510  
  0.2426094167323520  0.1553675469855550  0.1303914866869640  
  0.2338530649643520  0.1914861281483080  0.6310525393617400  
  0.2408313011001630  0.7024898515597330  0.1220393422577010  
  0.2371664873548290  0.6926247706437410  0.6323788564414100  
  0.7639149815436810  0.2043628642853420  0.1153055386673010  
  0.8176953105261300  0.1402205797122310  0.7234251313901660  
  0.7418612363428250  0.7234316541978760  0.0988440098114612  
  0.7472705428128130  0.6946535544430440  0.6402502042295070  
  0.1542713521093610  0.1297915235394430  0.2600707097947750  
  0.1539630009600140  0.1381386200496000  0.7570412709905460  
  0.1596019789577000  0.6316066014000210  0.2411598185896630  
  0.1567681193614950  0.6357310866102150  0.7581845988393360  
  0.6581118569679820  0.1452606185049490  0.2201327926987050  
  0.6700112342184660  0.1357037989963590  0.7880195276378210  
  0.6561960033410880  0.6255088934236090  0.1946022808888430  
  0.6600531100602010  0.6392587088334880  0.7628112157053200  
  0.1604417786646430  0.3354976570894380  0.1987161751859510  
  0.1684539692479750  0.3477263796475740  0.7477309099899370  
  0.1656595041572480  0.8422343269009540  0.2554596244913740  
  0.1645961519028770  0.8460544567984160  0.7505460811240610  
  0.6694806250139480  0.3596807877337510  0.2175189634101190  
  0.6881886561068979  0.3038375703500420  0.6653592961208680  
  0.6638016274062530  0.8217991708568700  0.2648490099919330  
  0.6653821607692429  0.8515202838441400  0.7516731481926050  
  0.2289141138302150  0.3158249066447000  0.3258950145254680  
  0.2448722788237840  0.2947517892131340  0.8641989759846390  
  0.2408123025379620  0.7770797554648000  0.3656374429679190  
  0.2415388851826660  0.7938696228799120  0.8648756004398610  
  0.7095560419762070  0.3019344316950330  0.3450523289475740  
  0.6944695564681040  0.3480716624699300  0.8004831651143610  
  0.7352815990506140  0.7269007391989560  0.3566718683717970  
  0.7358548993207720  0.8021619353368130  0.8708654979007550  
  0.3116454918428020  0.3381970856940530  0.2059669089505860  
  0.3199376213425640  0.3434496568624530  0.7476621441790700  
  0.3176128377129270  0.8425444970846200  0.2550761964197310  
  0.3172378913280680  0.8454810124615690  0.7479464968592840  
  0.8165338594477490  0.3539330726740240  0.2522463430415080  
  0.8221978058429070  0.3475650840973180  0.7248173362291930  
  0.8148417023064070  0.8195663039172970  0.2671341993947550  
  0.8170912959695980  0.8521479667460680  0.7568290415851610  
  0.2344012494734590  0.2970051889360320  0.2386494292534840  
  0.2426842077146390  0.2988996365619930  0.7745930853304610  
  0.2414034585343350  0.7926943653234449  0.2766625571347220  
  0.2407900382138790  0.7989060224933660  0.7750620093788410  
  0.7351734925589580  0.3084990733948540  0.2584063879460930  
  0.7408648209067910  0.3042446865705480  0.7384149665554750  
  0.7380771505861879  0.7671941135102570  0.2740801930398730  
  0.7400219691808670  0.8045899413821170  0.7812168085673800  
  0.7589869587783570  0.1341663895667890  0.5132297971173320  F F F
