Sn   Cl   C    H    N    Li
   1.00000000000000     
  11.1156835556000004   0.0000000000000000   0.0000000000000000
  -0.0572679011000000  11.4386679467000008   0.0000000000000000
   0.0811114213000000   0.6570856489000000  11.5018020556000007
Sn   Cl   C    H    N    Li
8  24  8  48  8  1  
Direct
  0.4786892501938740  0.4723435083086340  0.9781780232962870  
  0.4864413746093070  0.4864300492295140  0.4762824169611520  
  0.4860908480439280  0.9671237657923420  0.9894041878642170  
  0.4816030589282030  0.9650900775198670  0.4862339679814900  
  0.9844810910516431  0.4687997412491660  0.9791258453551340  
  0.9882994585447560  0.4708254601212900  0.4768336067735160  
  0.9884437253517400  0.9635349983360390  0.9904499632188020  
  0.9949282876844120  0.9531713920702980  0.4862414369373570  
  0.2255425643235460  0.4875997573392860  0.9806343764914730  
  0.2243247435067580  0.4177362154214730  0.4863671969889060  
  0.2406239305873570  0.9405718462300280  0.0025009077488313  
  0.2389219869480390  0.9868392063054550  0.4877000047197950  
  0.7234956341041960  0.4355058372701580  0.9803516547224710  
  0.7255331819743100  0.5313507286561500  0.4615216113410910  
  0.7406751083619770  0.9663506054181720  0.0017385502601673  
  0.7382572178732250  0.9232405627301410  0.4999908318772370  
  0.5726624645769350  0.2344456010111640  0.4922125976710730  
  0.4464884540748940  0.2449274743513040  0.9786610678759859  
  0.4494054296184560  0.7318548745937850  0.4826608932065310  
  0.4980397134095980  0.7442691870314900  0.9678225986713090  
  0.9468214622610990  0.2200433041570040  0.4749285889542360  
  0.0138843516938175  0.2425450122439340  0.9899002745926050  
  0.0273374591965026  0.7147497471249340  0.4791453535402370  
  0.9775450561861280  0.7406233834267230  0.9683600988262560  
  0.9846825341929570  0.4564432062888890  0.2218694816723050  
  0.9804555363771010  0.4498039861790320  0.7193256982065240  
  0.9811768072020320  0.9340302697429670  0.2294012997732500  
  0.9877184561023969  0.9553005785373100  0.7245719982097950  
  0.4776481408911810  0.4523906256189710  0.2129677642693880  
  0.4871021389308410  0.4620964421792900  0.7122331653933950  
  0.4930712893777300  0.9395834981505590  0.2274628484068380  
  0.4854194065759970  0.9569925901701860  0.7221492641169340  
  0.2332524673256380  0.1706566279277810  0.2154389654941350  
  0.2290782536601420  0.1812890429516430  0.7238426457614210  
  0.2369465247332910  0.6847426489535560  0.2117670361224230  
  0.2338594437687480  0.6828932036084430  0.7261738434234000  
  0.7386275709494881  0.1936879816606930  0.2022065597863960  
  0.7527809946251850  0.1782105505512850  0.7798138784578960  
  0.7344109956739030  0.6805172209397520  0.1807725468606700  
  0.7384822521957550  0.6914528669356490  0.7298712441180520  
  0.3125260489156420  0.1321269770883110  0.2575745265296020  
  0.3033039072703720  0.1284946059658670  0.7581911127800740  
  0.3176341660163710  0.6350429460156199  0.2360643199421210  
  0.3153109874190080  0.6389375500563630  0.7566072855460760  
  0.8085807680438900  0.1408337508789700  0.2454455275471540  
  0.8024506511030710  0.1777977906131450  0.8607545608863990  
  0.8138529993238800  0.6255844735129330  0.1943158434951980  
  0.8182045508298150  0.6460892154485290  0.7641999790514180  
  0.2390730264033510  0.1614577847410230  0.1217301141027530  
  0.2299778594611990  0.1881273352768330  0.6293051168437011  
  0.2370810806333030  0.7059775205175410  0.1180996347303280  
  0.2327931345116730  0.6878510827144250  0.6314002784258150  
  0.7637555022135910  0.2056994544504020  0.1104793949889090  
  0.8120527898001640  0.1397050858115100  0.7163259643900480  
  0.7376085957158960  0.7252134308286070  0.0945169154318932  
  0.7431523460353660  0.6995772532190310  0.6349158047155310  
  0.1507823066924450  0.1295477267439930  0.2504493948182330  
  0.1431433227419550  0.1438867537532990  0.7533849533422750  
  0.1558530973963950  0.6347288796269940  0.2369957767183840  
  0.1520056614350300  0.6396565206326670  0.7593461543909390  
  0.6516683555171719  0.1492655211797600  0.2103614285979750  
  0.6665656206739090  0.1332352585433310  0.7859994410449040  
  0.6521902714664390  0.6280077093080800  0.1912672636662790  
  0.6559962087501370  0.6451171045124080  0.7578265133953670  
  0.1561787258331350  0.3375382331225550  0.1992018000050150  
  0.1703108847068000  0.3509260860189730  0.7389620973225750  
  0.1613001371327420  0.8453801143451720  0.2515394648109760  
  0.1605019654604670  0.8494585659988230  0.7391330148212190  
  0.6699690977539450  0.3625150427492770  0.2094973917531070  
  0.6818726086176760  0.3054268811859300  0.6745955385312310  
  0.6595488760127320  0.8249634376372860  0.2596854724442400  
  0.6607448146508410  0.8568286238081740  0.7459444362819380  
  0.2246249691046680  0.3114378301995460  0.3254948074861040  
  0.2406859925005140  0.2987618331915280  0.8589511503518140  
  0.2363731164938320  0.7803002726058890  0.3618285962323270  
  0.2370258382527700  0.8042725619913320  0.8565726673287690  
  0.7012460240646040  0.3036152180090590  0.3390167603326510  
  0.6955551620941330  0.3426194309019460  0.8129925908249001  
  0.7313354026736399  0.7310174419297371  0.3522161659658450  
  0.7316139825301030  0.8081933341206430  0.8652360830182160  
  0.3072349053314300  0.3401696538153480  0.2064391859019590  
  0.3216895184701590  0.3378356968845280  0.7442184675265860  
  0.3133402269609470  0.8459492422664699  0.2514900957699500  
  0.3126093739136100  0.8487855413999690  0.7367606851805840  
  0.8146142650926340  0.3519178657951890  0.2521977385770530  
  0.8174023303926820  0.3461424122905620  0.7292600318356109  
  0.8106262790186840  0.8230029310353950  0.2618119450390880  
  0.8125261093230970  0.8580099371170340  0.7509036617687360  
  0.2302070343110100  0.2973667218507290  0.2372898453899290  
  0.2410890418027220  0.2994813266292800  0.7694226683711910  
  0.2371329210910000  0.7959802810775940  0.2728529717108110  
  0.2364015117371720  0.8037752636413010  0.7668510863410199  
  0.7317059868937560  0.3094871775754130  0.2538547379654640  
  0.7370730877794520  0.3025416764125320  0.7453414689706410  
  0.7339349591893680  0.7705291444241610  0.2693196220998080  
  0.7356030201409119  0.8103242031353920  0.7755641086670690  
  0.7589869587783570  0.1341663895667890  0.5132297971173320  F F F
