Sn   Cl   C    H    N    Li
   1.00000000000000     
  11.1156835556000004   0.0000000000000000   0.0000000000000000
  -0.0572679011000000  11.4386679467000008   0.0000000000000000
   0.0811114213000000   0.6570856489000000  11.5018020556000007
Sn   Cl   C    H    N    Li
8  24  8  48  8  1  
Direct
  0.4813106187015850  0.2632013671840730  0.9273092219789471  
  0.4823441455744350  0.2783552986776650  0.4162504265967820  
  0.4836426853601540  0.7536536106723321  0.9281937336036989  
  0.4827318794296110  0.7656914292312260  0.4257948922909720  
  0.9867249066640380  0.2546113611068740  0.9273474736934511  
  0.9985995570917070  0.2685761923392100  0.4194257186126290  
  0.9888199142053150  0.7504990740707820  0.9298320113629490  
  0.9885822516043270  0.7564966618347110  0.4272261318797160  
  0.2326036542369010  0.2587218191565200  0.9184301369536210  
  0.2321300454954220  0.2145092688702830  0.4408661767141990  
  0.2392755021428420  0.7227968350014540  0.9319492251026190  
  0.2416459205937690  0.7965982121876860  0.4178741151143290  
  0.7318003980998390  0.2292708587148960  0.9408117116479600  
  0.7309043312085870  0.3339570211491550  0.3950728182631730  
  0.7399416600941620  0.7617650637624490  0.9422775429308560  
  0.7408135207798880  0.7186870095483260  0.4384505404719120  
  0.5483078526601480  0.0346398671537168  0.4240634855543310  
  0.4596562322838810  0.0299119683456652  0.9227666380831741  
  0.4415654473739720  0.5381880194345550  0.4375045788916230  
  0.5048726005445050  0.5323381169341420  0.9062836181118710  
  0.9535895042772250  0.0213938797669107  0.4101454834100180  
  0.0008208485906672  0.0282420389967623  0.9373823512735310  
  0.0326293533332088  0.5248735232410290  0.4361851058879040  
  0.9698472974230030  0.5296660667259520  0.9066456999885620  
  0.9957841592067940  0.2491943254086600  0.1698352590032580  
  0.9587007761485969  0.2387986735205290  0.6686168737520680  
  0.9821542000975459  0.7238689564833750  0.1708136359699660  
  0.9839031531390390  0.7572941982103150  0.6663839983046750  
  0.4708073399782940  0.2441855194619640  0.1597407641248200  
  0.5059843706535450  0.2555769207340910  0.6557290007774290  
  0.4903887812246570  0.7299194517352759  0.1703716275842470  
  0.4781158268779710  0.7589116922055650  0.6646697412840720  
  0.2362391326256280  0.9630780119754160  0.1430368018961890  
  0.2114369485971840  0.9665254533962800  0.6795535304372970  
  0.2385038804123360  0.4801698159439040  0.1573082761596630  
  0.2349089113915480  0.4683340789941880  0.6883069094089430  
  0.7364630186267960  0.9725637102616090  0.1530641236664290  
  0.7509799701899060  0.9473197989292560  0.6931199404569780  
  0.7345806034083709  0.4720728073082760  0.1250752121726250  
  0.7387235662731790  0.4932404622048010  0.6697899431146270  
  0.3170807123092040  0.9173394011178980  0.1728877287050550  
  0.2536193902038530  0.9026688287732600  0.7391226730852271  
  0.3198481084535780  0.4315305102501420  0.1815255796969330  
  0.3173369813007310  0.4397986985449320  0.7309079087244370  
  0.7748697417802740  0.9085694738102910  0.2159877344672670  
  0.8433701672258450  0.9247727238947960  0.7078122540005080  
  0.8148193688898430  0.4185924887118570  0.1402025581334710  
  0.8194261342971590  0.4501976509383820  0.7047558141218410  
  0.2405422890406940  0.9801066610266680  0.0490464275319413  
  0.2256085601282250  0.9483048061419210  0.5891184775775260  
  0.2390650198027500  0.5019759145969110  0.0636638762285090  
  0.2355737991013390  0.4429369686865440  0.5982642827763490  
  0.7908489736038480  0.9763636234319890  0.0738068781487293  
  0.7514035296863540  0.9606702609435920  0.5996119076410630  
  0.7369060545581020  0.5121732932277800  0.0368624802712770  
  0.7429266022617780  0.5005511612117060  0.5748143971912570  
  0.1544473135326860  0.9144863438899420  0.1678196734107350  
  0.1147854569080270  0.9720100118621670  0.6939056405754070  
  0.1581555525865880  0.4285643002198500  0.1814724533248840  
  0.1523967887273960  0.4367644713096890  0.7310714372836840  
  0.6453486424693540  0.9458053675683930  0.1326699756849020  
  0.6713126199423920  0.8927074958106930  0.7025575058065850  
  0.6528983257511320  0.4191022079655630  0.1381562483209440  
  0.6572037101577340  0.4460787809542340  0.6991037091955580  
  0.1563819712960940  0.1243743778774580  0.1724310047476400  
  0.2238229844327860  0.1405751394477780  0.6492623964935370  
  0.1599328057212110  0.6393492078238210  0.1976568852614210  
  0.1583870533630930  0.6290529242907380  0.6459597742402720  
  0.6988832431332030  0.1521588067106320  0.1418998485235060  
  0.6566129057570880  0.0837481541698279  0.7346045144775820  
  0.6584538336572100  0.6202183130345750  0.1974363784257810  
  0.6578841960157970  0.6575682486755150  0.6836229957714730  
  0.2280948912694450  0.0657845979977826  0.2871597512526610  
  0.2513868643888240  0.1053327845185710  0.7897556828992490  
  0.2348884051498490  0.5747095625212800  0.3082368414128960  
  0.2345396900496750  0.6257686558643820  0.7709353348107750  
  0.6778860488496850  0.0899337271337369  0.2709939569941520  
  0.7351187962368900  0.0434367099282799  0.8431677454223270  
  0.7319951963061430  0.5335208773188510  0.2934589839544120  
  0.7304881449769670  0.6117867563161670  0.8030866538744520  
  0.3081601264547290  0.1271952994442700  0.1768304896784540  
  0.3546625029172130  0.0812310915142566  0.6940440291780290  
  0.3123798433926120  0.6416612200432700  0.1989535272344430  
  0.3111871564483280  0.6313953264878270  0.6450736403874749  
  0.8207587802215750  0.1168545408392630  0.2200575087891880  
  0.8098563367468530  0.1185239510304300  0.7464479929672020  
  0.8101591021430330  0.6196435353546590  0.1987733449584150  
  0.8097704499469480  0.6614427487718150  0.6874823979256960  
  0.2320762534216450  0.0778805641423005  0.1977875265943230  
  0.2640079898851340  0.0805556623106066  0.7056692846217280  
  0.2363766868587010  0.5908258306754250  0.2192713533819910  
  0.2350895432941830  0.5976980281943660  0.6867619284811880  
  0.7347950139383560  0.0899224495325551  0.2001186275427360  
  0.7403519908399560  0.0592890834074410  0.7547091642273850  
  0.7336467537638330  0.5670068079065750  0.2084502330455200  
  0.7337149355909390  0.6127907267225630  0.7133557518709700  
  0.7589869587783570  0.1341663895667890  0.5132297971173320  F F F
